*SPEF "ieee 1481-1999"
*DESIGN "bary_check_pipe_m"
*DATE "11:11:11 Fri 11 11, 1111"
*VENDOR "OpenRCX"
*PROGRAM "Parallel Extraction"
*VERSION "1.0"
*DESIGN_FLOW "NAME_SCOPE LOCAL" "PIN_CAP NONE"
*DIVIDER /
*DELIMITER :
*BUS_DELIMITER []
*T_UNIT 1 NS
*C_UNIT 1 PF
*R_UNIT 1 OHM
*L_UNIT 1 HENRY

*NAME_MAP
*1 busy_o
*2 clk_i
*3 mstream_i
*4 mstream_o[0]
*5 mstream_o[100]
*6 mstream_o[101]
*7 mstream_o[102]
*8 mstream_o[103]
*9 mstream_o[104]
*10 mstream_o[105]
*11 mstream_o[106]
*12 mstream_o[107]
*13 mstream_o[108]
*14 mstream_o[109]
*15 mstream_o[10]
*16 mstream_o[110]
*17 mstream_o[111]
*18 mstream_o[112]
*19 mstream_o[113]
*20 mstream_o[114]
*21 mstream_o[115]
*22 mstream_o[11]
*23 mstream_o[12]
*24 mstream_o[13]
*25 mstream_o[14]
*26 mstream_o[15]
*27 mstream_o[16]
*28 mstream_o[17]
*29 mstream_o[18]
*30 mstream_o[19]
*31 mstream_o[1]
*32 mstream_o[20]
*33 mstream_o[21]
*34 mstream_o[22]
*35 mstream_o[23]
*36 mstream_o[24]
*37 mstream_o[25]
*38 mstream_o[26]
*39 mstream_o[27]
*40 mstream_o[28]
*41 mstream_o[29]
*42 mstream_o[2]
*43 mstream_o[30]
*44 mstream_o[31]
*45 mstream_o[32]
*46 mstream_o[33]
*47 mstream_o[34]
*48 mstream_o[35]
*49 mstream_o[36]
*50 mstream_o[37]
*51 mstream_o[38]
*52 mstream_o[39]
*53 mstream_o[3]
*54 mstream_o[40]
*55 mstream_o[41]
*56 mstream_o[42]
*57 mstream_o[43]
*58 mstream_o[44]
*59 mstream_o[45]
*60 mstream_o[46]
*61 mstream_o[47]
*62 mstream_o[48]
*63 mstream_o[49]
*64 mstream_o[4]
*65 mstream_o[50]
*66 mstream_o[51]
*67 mstream_o[52]
*68 mstream_o[53]
*69 mstream_o[54]
*70 mstream_o[55]
*71 mstream_o[56]
*72 mstream_o[57]
*73 mstream_o[58]
*74 mstream_o[59]
*75 mstream_o[5]
*76 mstream_o[60]
*77 mstream_o[61]
*78 mstream_o[62]
*79 mstream_o[63]
*80 mstream_o[64]
*81 mstream_o[65]
*82 mstream_o[66]
*83 mstream_o[67]
*84 mstream_o[68]
*85 mstream_o[69]
*86 mstream_o[6]
*87 mstream_o[70]
*88 mstream_o[71]
*89 mstream_o[72]
*90 mstream_o[73]
*91 mstream_o[74]
*92 mstream_o[75]
*93 mstream_o[76]
*94 mstream_o[77]
*95 mstream_o[78]
*96 mstream_o[79]
*97 mstream_o[7]
*98 mstream_o[80]
*99 mstream_o[81]
*100 mstream_o[82]
*101 mstream_o[83]
*102 mstream_o[84]
*103 mstream_o[85]
*104 mstream_o[86]
*105 mstream_o[87]
*106 mstream_o[88]
*107 mstream_o[89]
*108 mstream_o[8]
*109 mstream_o[90]
*110 mstream_o[91]
*111 mstream_o[92]
*112 mstream_o[93]
*113 mstream_o[94]
*114 mstream_o[95]
*115 mstream_o[96]
*116 mstream_o[97]
*117 mstream_o[98]
*118 mstream_o[99]
*119 mstream_o[9]
*120 nrst_i
*121 sstream_i[0]
*122 sstream_i[100]
*123 sstream_i[101]
*124 sstream_i[102]
*125 sstream_i[103]
*126 sstream_i[104]
*127 sstream_i[105]
*128 sstream_i[106]
*129 sstream_i[107]
*130 sstream_i[108]
*131 sstream_i[109]
*132 sstream_i[10]
*133 sstream_i[110]
*134 sstream_i[111]
*135 sstream_i[112]
*136 sstream_i[113]
*137 sstream_i[114]
*138 sstream_i[115]
*139 sstream_i[11]
*140 sstream_i[12]
*141 sstream_i[13]
*142 sstream_i[14]
*143 sstream_i[15]
*144 sstream_i[16]
*145 sstream_i[17]
*146 sstream_i[18]
*147 sstream_i[19]
*148 sstream_i[1]
*149 sstream_i[20]
*150 sstream_i[21]
*151 sstream_i[22]
*152 sstream_i[23]
*153 sstream_i[24]
*154 sstream_i[25]
*155 sstream_i[26]
*156 sstream_i[27]
*157 sstream_i[28]
*158 sstream_i[29]
*159 sstream_i[2]
*160 sstream_i[30]
*161 sstream_i[31]
*162 sstream_i[32]
*163 sstream_i[33]
*164 sstream_i[34]
*165 sstream_i[35]
*166 sstream_i[36]
*167 sstream_i[37]
*168 sstream_i[38]
*169 sstream_i[39]
*170 sstream_i[3]
*171 sstream_i[40]
*172 sstream_i[41]
*173 sstream_i[42]
*174 sstream_i[43]
*175 sstream_i[44]
*176 sstream_i[45]
*177 sstream_i[46]
*178 sstream_i[47]
*179 sstream_i[48]
*180 sstream_i[49]
*181 sstream_i[4]
*182 sstream_i[50]
*183 sstream_i[51]
*184 sstream_i[52]
*185 sstream_i[53]
*186 sstream_i[54]
*187 sstream_i[55]
*188 sstream_i[56]
*189 sstream_i[57]
*190 sstream_i[58]
*191 sstream_i[59]
*192 sstream_i[5]
*193 sstream_i[60]
*194 sstream_i[61]
*195 sstream_i[62]
*196 sstream_i[63]
*197 sstream_i[64]
*198 sstream_i[65]
*199 sstream_i[66]
*200 sstream_i[67]
*201 sstream_i[68]
*202 sstream_i[69]
*203 sstream_i[6]
*204 sstream_i[70]
*205 sstream_i[71]
*206 sstream_i[72]
*207 sstream_i[73]
*208 sstream_i[74]
*209 sstream_i[75]
*210 sstream_i[76]
*211 sstream_i[77]
*212 sstream_i[78]
*213 sstream_i[79]
*214 sstream_i[7]
*215 sstream_i[80]
*216 sstream_i[81]
*217 sstream_i[82]
*218 sstream_i[83]
*219 sstream_i[84]
*220 sstream_i[85]
*221 sstream_i[86]
*222 sstream_i[87]
*223 sstream_i[88]
*224 sstream_i[89]
*225 sstream_i[8]
*226 sstream_i[90]
*227 sstream_i[91]
*228 sstream_i[92]
*229 sstream_i[93]
*230 sstream_i[94]
*231 sstream_i[95]
*232 sstream_i[96]
*233 sstream_i[97]
*234 sstream_i[98]
*235 sstream_i[99]
*236 sstream_i[9]
*237 sstream_o
*240 _000_
*241 _001_
*242 _002_
*243 _003_
*244 _004_
*245 _005_
*246 _006_
*247 _007_
*248 _008_
*249 _009_
*250 _010_
*251 _011_
*252 _012_
*253 _013_
*254 _014_
*255 _015_
*256 _016_
*257 _017_
*258 _018_
*259 _019_
*260 _020_
*261 _021_
*262 _022_
*263 _023_
*264 _024_
*265 _025_
*266 _026_
*267 _027_
*268 _028_
*269 _029_
*270 _030_
*271 _031_
*272 _032_
*273 _033_
*274 _034_
*275 _035_
*276 _036_
*277 _037_
*278 _038_
*279 _039_
*280 _040_
*281 _041_
*282 _042_
*283 _043_
*284 _044_
*285 _045_
*286 _046_
*287 _047_
*288 _048_
*289 _049_
*290 _050_
*291 _051_
*292 _052_
*293 _053_
*294 _054_
*295 _055_
*296 _056_
*297 _057_
*298 _058_
*299 _059_
*300 _060_
*301 _061_
*302 _062_
*303 _063_
*304 _064_
*305 _065_
*306 _066_
*307 _067_
*308 _068_
*309 _069_
*310 _070_
*311 _071_
*312 _072_
*313 _073_
*314 _074_
*315 _075_
*316 _076_
*317 _077_
*318 _078_
*319 _079_
*320 _080_
*321 _081_
*322 _082_
*323 _083_
*324 _084_
*325 _085_
*326 _086_
*327 _087_
*328 _088_
*329 _089_
*330 _090_
*331 _091_
*332 _092_
*333 _093_
*334 _094_
*335 _095_
*336 _096_
*337 _097_
*338 _098_
*339 _099_
*340 _100_
*341 _101_
*342 _102_
*343 _103_
*344 _104_
*345 _105_
*346 _106_
*347 _107_
*348 _108_
*349 _109_
*350 _110_
*351 _111_
*352 _112_
*353 _113_
*354 _114_
*355 _115_
*356 clknet_0_clk_i
*357 clknet_3_0_0_clk_i
*358 clknet_3_1_0_clk_i
*359 clknet_3_2_0_clk_i
*360 clknet_3_3_0_clk_i
*361 clknet_3_4_0_clk_i
*362 clknet_3_5_0_clk_i
*363 clknet_3_6_0_clk_i
*364 clknet_3_7_0_clk_i
*365 clknet_4_0__leaf_clk_i
*366 clknet_4_10__leaf_clk_i
*367 clknet_4_11__leaf_clk_i
*368 clknet_4_12__leaf_clk_i
*369 clknet_4_13__leaf_clk_i
*370 clknet_4_14__leaf_clk_i
*371 clknet_4_15__leaf_clk_i
*372 clknet_4_1__leaf_clk_i
*373 clknet_4_2__leaf_clk_i
*374 clknet_4_3__leaf_clk_i
*375 clknet_4_4__leaf_clk_i
*376 clknet_4_5__leaf_clk_i
*377 clknet_4_6__leaf_clk_i
*378 clknet_4_7__leaf_clk_i
*379 clknet_4_8__leaf_clk_i
*380 clknet_4_9__leaf_clk_i
*381 net1
*382 net10
*383 net11
*384 net12
*385 net13
*386 net14
*387 net15
*388 net16
*389 net17
*390 net18
*391 net19
*392 net2
*393 net20
*394 net21
*395 net22
*396 net23
*397 net24
*398 net25
*399 net26
*400 net27
*401 net28
*402 net29
*403 net3
*404 net30
*405 net31
*406 net32
*407 net33
*408 net34
*409 net35
*410 net36
*411 net4
*412 net5
*413 net6
*414 net7
*415 net8
*416 net9
*417 ANTENNA_clkbuf_3_0_0_clk_i_A
*418 ANTENNA_clkbuf_3_1_0_clk_i_A
*419 ANTENNA_clkbuf_3_2_0_clk_i_A
*420 ANTENNA_clkbuf_3_3_0_clk_i_A
*421 ANTENNA_clkbuf_3_4_0_clk_i_A
*422 ANTENNA_clkbuf_3_5_0_clk_i_A
*423 ANTENNA_clkbuf_3_6_0_clk_i_A
*424 ANTENNA_clkbuf_3_7_0_clk_i_A
*425 ANTENNA_fanout10_A
*426 ANTENNA_fanout11_A
*427 ANTENNA_fanout12_A
*428 ANTENNA_fanout13_A
*429 ANTENNA_fanout14_A
*430 ANTENNA_fanout15_A
*431 ANTENNA_fanout16_A
*432 ANTENNA_fanout17_A
*433 ANTENNA_fanout19_A
*434 ANTENNA_fanout1_A
*435 ANTENNA_fanout20_A
*436 ANTENNA_fanout21_A
*437 ANTENNA_fanout22_A
*438 ANTENNA_fanout23_A
*439 ANTENNA_fanout24_A
*440 ANTENNA_fanout25_A
*441 ANTENNA_fanout26_A
*442 ANTENNA_fanout28_A
*443 ANTENNA_fanout29_A
*444 ANTENNA_fanout2_A
*445 ANTENNA_fanout30_A
*446 ANTENNA_fanout31_A
*447 ANTENNA_fanout32_A
*448 ANTENNA_fanout33_A
*449 ANTENNA_fanout34_A
*450 ANTENNA_fanout35_A
*451 ANTENNA_fanout3_A
*452 ANTENNA_fanout4_A
*453 ANTENNA_fanout5_A
*454 ANTENNA_fanout6_A
*455 ANTENNA_fanout7_A
*456 ANTENNA_fanout8_A
*457 FILLER_0_0_15
*458 FILLER_0_0_27
*459 FILLER_0_0_29
*460 FILLER_0_0_3
*461 FILLER_0_0_41
*462 FILLER_0_0_53
*463 FILLER_0_0_57
*464 FILLER_0_0_69
*465 FILLER_0_100_15
*466 FILLER_0_100_29
*467 FILLER_0_100_3
*468 FILLER_0_100_35
*469 FILLER_0_100_59
*470 FILLER_0_100_71
*471 FILLER_0_100_79
*472 FILLER_0_101_15
*473 FILLER_0_101_23
*474 FILLER_0_101_3
*475 FILLER_0_101_57
*476 FILLER_0_101_69
*477 FILLER_0_102_15
*478 FILLER_0_102_27
*479 FILLER_0_102_29
*480 FILLER_0_102_3
*481 FILLER_0_102_60
*482 FILLER_0_102_72
*483 FILLER_0_102_80
*484 FILLER_0_103_15
*485 FILLER_0_103_23
*486 FILLER_0_103_3
*487 FILLER_0_103_57
*488 FILLER_0_103_69
*489 FILLER_0_104_3
*490 FILLER_0_104_35
*491 FILLER_0_104_59
*492 FILLER_0_104_71
*493 FILLER_0_104_79
*494 FILLER_0_105_15
*495 FILLER_0_105_23
*496 FILLER_0_105_3
*497 FILLER_0_105_57
*498 FILLER_0_105_69
*499 FILLER_0_106_3
*500 FILLER_0_106_49
*501 FILLER_0_106_55
*502 FILLER_0_106_59
*503 FILLER_0_106_7
*504 FILLER_0_106_71
*505 FILLER_0_106_79
*506 FILLER_0_107_15
*507 FILLER_0_107_23
*508 FILLER_0_107_3
*509 FILLER_0_107_57
*510 FILLER_0_108_15
*511 FILLER_0_108_29
*512 FILLER_0_108_3
*513 FILLER_0_108_35
*514 FILLER_0_108_59
*515 FILLER_0_108_71
*516 FILLER_0_108_79
*517 FILLER_0_109_15
*518 FILLER_0_109_23
*519 FILLER_0_109_3
*520 FILLER_0_109_57
*521 FILLER_0_109_69
*522 FILLER_0_10_15
*523 FILLER_0_10_27
*524 FILLER_0_10_29
*525 FILLER_0_10_3
*526 FILLER_0_10_41
*527 FILLER_0_10_53
*528 FILLER_0_10_65
*529 FILLER_0_10_77
*530 FILLER_0_110_15
*531 FILLER_0_110_29
*532 FILLER_0_110_3
*533 FILLER_0_110_33
*534 FILLER_0_110_59
*535 FILLER_0_110_71
*536 FILLER_0_110_79
*537 FILLER_0_111_11
*538 FILLER_0_111_23
*539 FILLER_0_111_3
*540 FILLER_0_111_63
*541 FILLER_0_111_67
*542 FILLER_0_111_79
*543 FILLER_0_112_11
*544 FILLER_0_112_3
*545 FILLER_0_112_35
*546 FILLER_0_112_70
*547 FILLER_0_112_74
*548 FILLER_0_112_80
*549 FILLER_0_113_15
*550 FILLER_0_113_3
*551 FILLER_0_113_57
*552 FILLER_0_113_69
*553 FILLER_0_114_15
*554 FILLER_0_114_29
*555 FILLER_0_114_3
*556 FILLER_0_114_33
*557 FILLER_0_114_60
*558 FILLER_0_114_72
*559 FILLER_0_114_80
*560 FILLER_0_115_11
*561 FILLER_0_115_3
*562 FILLER_0_115_77
*563 FILLER_0_116_15
*564 FILLER_0_116_29
*565 FILLER_0_116_3
*566 FILLER_0_116_60
*567 FILLER_0_116_72
*568 FILLER_0_116_80
*569 FILLER_0_117_15
*570 FILLER_0_117_23
*571 FILLER_0_117_3
*572 FILLER_0_117_57
*573 FILLER_0_117_69
*574 FILLER_0_118_15
*575 FILLER_0_118_29
*576 FILLER_0_118_3
*577 FILLER_0_118_60
*578 FILLER_0_118_72
*579 FILLER_0_118_80
*580 FILLER_0_119_15
*581 FILLER_0_119_23
*582 FILLER_0_119_3
*583 FILLER_0_119_57
*584 FILLER_0_119_69
*585 FILLER_0_11_15
*586 FILLER_0_11_23
*587 FILLER_0_11_3
*588 FILLER_0_11_63
*589 FILLER_0_11_75
*590 FILLER_0_120_15
*591 FILLER_0_120_29
*592 FILLER_0_120_3
*593 FILLER_0_120_35
*594 FILLER_0_120_66
*595 FILLER_0_120_78
*596 FILLER_0_121_15
*597 FILLER_0_121_21
*598 FILLER_0_121_29
*599 FILLER_0_121_3
*600 FILLER_0_121_57
*601 FILLER_0_121_69
*602 FILLER_0_122_15
*603 FILLER_0_122_29
*604 FILLER_0_122_3
*605 FILLER_0_122_35
*606 FILLER_0_122_59
*607 FILLER_0_122_71
*608 FILLER_0_122_79
*609 FILLER_0_123_15
*610 FILLER_0_123_23
*611 FILLER_0_123_3
*612 FILLER_0_123_57
*613 FILLER_0_123_69
*614 FILLER_0_124_15
*615 FILLER_0_124_29
*616 FILLER_0_124_3
*617 FILLER_0_124_33
*618 FILLER_0_124_80
*619 FILLER_0_125_15
*620 FILLER_0_125_23
*621 FILLER_0_125_3
*622 FILLER_0_125_57
*623 FILLER_0_125_69
*624 FILLER_0_126_15
*625 FILLER_0_126_27
*626 FILLER_0_126_29
*627 FILLER_0_126_3
*628 FILLER_0_126_41
*629 FILLER_0_126_53
*630 FILLER_0_126_65
*631 FILLER_0_126_77
*632 FILLER_0_127_15
*633 FILLER_0_127_27
*634 FILLER_0_127_3
*635 FILLER_0_127_39
*636 FILLER_0_127_51
*637 FILLER_0_127_55
*638 FILLER_0_127_57
*639 FILLER_0_127_69
*640 FILLER_0_128_15
*641 FILLER_0_128_27
*642 FILLER_0_128_29
*643 FILLER_0_128_3
*644 FILLER_0_128_41
*645 FILLER_0_128_53
*646 FILLER_0_128_65
*647 FILLER_0_128_77
*648 FILLER_0_129_15
*649 FILLER_0_129_27
*650 FILLER_0_129_3
*651 FILLER_0_129_39
*652 FILLER_0_129_51
*653 FILLER_0_129_55
*654 FILLER_0_129_57
*655 FILLER_0_129_69
*656 FILLER_0_12_15
*657 FILLER_0_12_23
*658 FILLER_0_12_27
*659 FILLER_0_12_29
*660 FILLER_0_12_3
*661 FILLER_0_12_69
*662 FILLER_0_12_73
*663 FILLER_0_130_15
*664 FILLER_0_130_27
*665 FILLER_0_130_29
*666 FILLER_0_130_3
*667 FILLER_0_130_41
*668 FILLER_0_130_53
*669 FILLER_0_130_65
*670 FILLER_0_130_77
*671 FILLER_0_131_15
*672 FILLER_0_131_27
*673 FILLER_0_131_3
*674 FILLER_0_131_39
*675 FILLER_0_131_51
*676 FILLER_0_131_55
*677 FILLER_0_131_57
*678 FILLER_0_131_69
*679 FILLER_0_132_15
*680 FILLER_0_132_27
*681 FILLER_0_132_29
*682 FILLER_0_132_3
*683 FILLER_0_132_41
*684 FILLER_0_132_53
*685 FILLER_0_132_65
*686 FILLER_0_132_77
*687 FILLER_0_133_15
*688 FILLER_0_133_27
*689 FILLER_0_133_3
*690 FILLER_0_133_39
*691 FILLER_0_133_51
*692 FILLER_0_133_55
*693 FILLER_0_133_57
*694 FILLER_0_133_69
*695 FILLER_0_134_15
*696 FILLER_0_134_27
*697 FILLER_0_134_29
*698 FILLER_0_134_3
*699 FILLER_0_134_41
*700 FILLER_0_134_53
*701 FILLER_0_134_65
*702 FILLER_0_134_77
*703 FILLER_0_135_15
*704 FILLER_0_135_27
*705 FILLER_0_135_3
*706 FILLER_0_135_39
*707 FILLER_0_135_51
*708 FILLER_0_135_55
*709 FILLER_0_135_57
*710 FILLER_0_135_69
*711 FILLER_0_136_15
*712 FILLER_0_136_27
*713 FILLER_0_136_29
*714 FILLER_0_136_3
*715 FILLER_0_136_41
*716 FILLER_0_136_53
*717 FILLER_0_136_65
*718 FILLER_0_136_77
*719 FILLER_0_137_15
*720 FILLER_0_137_27
*721 FILLER_0_137_3
*722 FILLER_0_137_39
*723 FILLER_0_137_51
*724 FILLER_0_137_55
*725 FILLER_0_137_57
*726 FILLER_0_137_69
*727 FILLER_0_138_15
*728 FILLER_0_138_27
*729 FILLER_0_138_29
*730 FILLER_0_138_3
*731 FILLER_0_138_41
*732 FILLER_0_138_53
*733 FILLER_0_138_57
*734 FILLER_0_138_69
*735 FILLER_0_13_15
*736 FILLER_0_13_23
*737 FILLER_0_13_3
*738 FILLER_0_13_57
*739 FILLER_0_13_69
*740 FILLER_0_14_29
*741 FILLER_0_14_3
*742 FILLER_0_14_35
*743 FILLER_0_14_59
*744 FILLER_0_14_7
*745 FILLER_0_14_71
*746 FILLER_0_14_79
*747 FILLER_0_15_11
*748 FILLER_0_15_3
*749 FILLER_0_15_57
*750 FILLER_0_15_69
*751 FILLER_0_16_15
*752 FILLER_0_16_23
*753 FILLER_0_16_27
*754 FILLER_0_16_29
*755 FILLER_0_16_3
*756 FILLER_0_16_60
*757 FILLER_0_16_72
*758 FILLER_0_16_80
*759 FILLER_0_17_15
*760 FILLER_0_17_23
*761 FILLER_0_17_3
*762 FILLER_0_17_57
*763 FILLER_0_17_69
*764 FILLER_0_18_15
*765 FILLER_0_18_29
*766 FILLER_0_18_3
*767 FILLER_0_18_35
*768 FILLER_0_18_59
*769 FILLER_0_18_71
*770 FILLER_0_18_79
*771 FILLER_0_19_15
*772 FILLER_0_19_23
*773 FILLER_0_19_3
*774 FILLER_0_19_57
*775 FILLER_0_19_69
*776 FILLER_0_1_15
*777 FILLER_0_1_27
*778 FILLER_0_1_3
*779 FILLER_0_1_39
*780 FILLER_0_1_51
*781 FILLER_0_1_55
*782 FILLER_0_1_57
*783 FILLER_0_1_69
*784 FILLER_0_20_15
*785 FILLER_0_20_29
*786 FILLER_0_20_3
*787 FILLER_0_20_58
*788 FILLER_0_20_70
*789 FILLER_0_20_78
*790 FILLER_0_21_15
*791 FILLER_0_21_23
*792 FILLER_0_21_3
*793 FILLER_0_21_57
*794 FILLER_0_21_69
*795 FILLER_0_22_15
*796 FILLER_0_22_27
*797 FILLER_0_22_29
*798 FILLER_0_22_3
*799 FILLER_0_22_60
*800 FILLER_0_22_72
*801 FILLER_0_22_80
*802 FILLER_0_23_15
*803 FILLER_0_23_23
*804 FILLER_0_23_3
*805 FILLER_0_23_57
*806 FILLER_0_23_69
*807 FILLER_0_24_29
*808 FILLER_0_24_3
*809 FILLER_0_24_7
*810 FILLER_0_24_71
*811 FILLER_0_24_75
*812 FILLER_0_25_11
*813 FILLER_0_25_3
*814 FILLER_0_25_68
*815 FILLER_0_25_72
*816 FILLER_0_25_80
*817 FILLER_0_26_15
*818 FILLER_0_26_29
*819 FILLER_0_26_3
*820 FILLER_0_26_66
*821 FILLER_0_26_70
*822 FILLER_0_26_78
*823 FILLER_0_27_15
*824 FILLER_0_27_23
*825 FILLER_0_27_3
*826 FILLER_0_27_57
*827 FILLER_0_27_69
*828 FILLER_0_28_15
*829 FILLER_0_28_27
*830 FILLER_0_28_29
*831 FILLER_0_28_3
*832 FILLER_0_28_35
*833 FILLER_0_28_59
*834 FILLER_0_28_71
*835 FILLER_0_28_79
*836 FILLER_0_29_15
*837 FILLER_0_29_23
*838 FILLER_0_29_3
*839 FILLER_0_29_57
*840 FILLER_0_29_69
*841 FILLER_0_2_15
*842 FILLER_0_2_27
*843 FILLER_0_2_29
*844 FILLER_0_2_3
*845 FILLER_0_2_41
*846 FILLER_0_2_53
*847 FILLER_0_2_65
*848 FILLER_0_2_77
*849 FILLER_0_30_15
*850 FILLER_0_30_29
*851 FILLER_0_30_3
*852 FILLER_0_30_58
*853 FILLER_0_30_70
*854 FILLER_0_30_78
*855 FILLER_0_31_15
*856 FILLER_0_31_23
*857 FILLER_0_31_3
*858 FILLER_0_31_57
*859 FILLER_0_31_69
*860 FILLER_0_32_15
*861 FILLER_0_32_29
*862 FILLER_0_32_3
*863 FILLER_0_32_58
*864 FILLER_0_32_70
*865 FILLER_0_32_78
*866 FILLER_0_33_15
*867 FILLER_0_33_23
*868 FILLER_0_33_3
*869 FILLER_0_33_57
*870 FILLER_0_33_69
*871 FILLER_0_34_15
*872 FILLER_0_34_29
*873 FILLER_0_34_3
*874 FILLER_0_34_35
*875 FILLER_0_34_59
*876 FILLER_0_34_71
*877 FILLER_0_34_79
*878 FILLER_0_35_15
*879 FILLER_0_35_23
*880 FILLER_0_35_3
*881 FILLER_0_35_57
*882 FILLER_0_35_69
*883 FILLER_0_36_15
*884 FILLER_0_36_29
*885 FILLER_0_36_3
*886 FILLER_0_36_33
*887 FILLER_0_36_60
*888 FILLER_0_36_72
*889 FILLER_0_36_80
*890 FILLER_0_37_15
*891 FILLER_0_37_3
*892 FILLER_0_37_57
*893 FILLER_0_37_69
*894 FILLER_0_38_3
*895 FILLER_0_38_58
*896 FILLER_0_38_70
*897 FILLER_0_38_78
*898 FILLER_0_39_15
*899 FILLER_0_39_3
*900 FILLER_0_39_57
*901 FILLER_0_39_69
*902 FILLER_0_3_15
*903 FILLER_0_3_27
*904 FILLER_0_3_3
*905 FILLER_0_3_39
*906 FILLER_0_3_51
*907 FILLER_0_3_55
*908 FILLER_0_3_57
*909 FILLER_0_3_69
*910 FILLER_0_40_29
*911 FILLER_0_40_3
*912 FILLER_0_40_33
*913 FILLER_0_40_68
*914 FILLER_0_40_72
*915 FILLER_0_40_80
*916 FILLER_0_41_17
*917 FILLER_0_41_3
*918 FILLER_0_41_57
*919 FILLER_0_41_69
*920 FILLER_0_42_15
*921 FILLER_0_42_27
*922 FILLER_0_42_29
*923 FILLER_0_42_3
*924 FILLER_0_42_33
*925 FILLER_0_42_41
*926 FILLER_0_42_53
*927 FILLER_0_43_15
*928 FILLER_0_43_23
*929 FILLER_0_43_3
*930 FILLER_0_43_57
*931 FILLER_0_43_69
*932 FILLER_0_44_15
*933 FILLER_0_44_29
*934 FILLER_0_44_3
*935 FILLER_0_44_35
*936 FILLER_0_44_59
*937 FILLER_0_44_71
*938 FILLER_0_44_79
*939 FILLER_0_45_15
*940 FILLER_0_45_23
*941 FILLER_0_45_3
*942 FILLER_0_45_57
*943 FILLER_0_45_69
*944 FILLER_0_46_15
*945 FILLER_0_46_29
*946 FILLER_0_46_3
*947 FILLER_0_46_60
*948 FILLER_0_46_72
*949 FILLER_0_46_80
*950 FILLER_0_47_15
*951 FILLER_0_47_23
*952 FILLER_0_47_3
*953 FILLER_0_47_57
*954 FILLER_0_47_69
*955 FILLER_0_48_15
*956 FILLER_0_48_29
*957 FILLER_0_48_3
*958 FILLER_0_48_58
*959 FILLER_0_48_70
*960 FILLER_0_48_78
*961 FILLER_0_49_15
*962 FILLER_0_49_23
*963 FILLER_0_49_3
*964 FILLER_0_49_57
*965 FILLER_0_49_69
*966 FILLER_0_4_15
*967 FILLER_0_4_27
*968 FILLER_0_4_29
*969 FILLER_0_4_3
*970 FILLER_0_4_41
*971 FILLER_0_4_53
*972 FILLER_0_4_65
*973 FILLER_0_4_77
*974 FILLER_0_50_15
*975 FILLER_0_50_29
*976 FILLER_0_50_3
*977 FILLER_0_50_58
*978 FILLER_0_50_70
*979 FILLER_0_50_78
*980 FILLER_0_51_15
*981 FILLER_0_51_23
*982 FILLER_0_51_3
*983 FILLER_0_51_57
*984 FILLER_0_51_69
*985 FILLER_0_52_29
*986 FILLER_0_52_3
*987 FILLER_0_52_60
*988 FILLER_0_52_7
*989 FILLER_0_52_72
*990 FILLER_0_52_80
*991 FILLER_0_53_11
*992 FILLER_0_53_3
*993 FILLER_0_53_57
*994 FILLER_0_53_69
*995 FILLER_0_54_15
*996 FILLER_0_54_3
*997 FILLER_0_54_58
*998 FILLER_0_54_70
*999 FILLER_0_54_78
*1000 FILLER_0_55_15
*1001 FILLER_0_55_23
*1002 FILLER_0_55_3
*1003 FILLER_0_55_57
*1004 FILLER_0_55_69
*1005 FILLER_0_56_15
*1006 FILLER_0_56_29
*1007 FILLER_0_56_3
*1008 FILLER_0_56_35
*1009 FILLER_0_56_65
*1010 FILLER_0_56_69
*1011 FILLER_0_57_15
*1012 FILLER_0_57_23
*1013 FILLER_0_57_3
*1014 FILLER_0_57_68
*1015 FILLER_0_57_72
*1016 FILLER_0_57_80
*1017 FILLER_0_58_15
*1018 FILLER_0_58_29
*1019 FILLER_0_58_3
*1020 FILLER_0_58_35
*1021 FILLER_0_58_70
*1022 FILLER_0_58_74
*1023 FILLER_0_58_80
*1024 FILLER_0_59_15
*1025 FILLER_0_59_23
*1026 FILLER_0_59_3
*1027 FILLER_0_59_57
*1028 FILLER_0_59_69
*1029 FILLER_0_5_15
*1030 FILLER_0_5_27
*1031 FILLER_0_5_3
*1032 FILLER_0_5_39
*1033 FILLER_0_5_51
*1034 FILLER_0_5_55
*1035 FILLER_0_5_57
*1036 FILLER_0_5_69
*1037 FILLER_0_60_15
*1038 FILLER_0_60_29
*1039 FILLER_0_60_3
*1040 FILLER_0_60_60
*1041 FILLER_0_60_72
*1042 FILLER_0_60_80
*1043 FILLER_0_61_15
*1044 FILLER_0_61_23
*1045 FILLER_0_61_3
*1046 FILLER_0_61_57
*1047 FILLER_0_61_69
*1048 FILLER_0_62_29
*1049 FILLER_0_62_3
*1050 FILLER_0_62_60
*1051 FILLER_0_62_7
*1052 FILLER_0_62_72
*1053 FILLER_0_62_80
*1054 FILLER_0_63_11
*1055 FILLER_0_63_3
*1056 FILLER_0_63_57
*1057 FILLER_0_63_69
*1058 FILLER_0_64_3
*1059 FILLER_0_64_58
*1060 FILLER_0_64_70
*1061 FILLER_0_64_78
*1062 FILLER_0_65_15
*1063 FILLER_0_65_23
*1064 FILLER_0_65_3
*1065 FILLER_0_65_57
*1066 FILLER_0_65_69
*1067 FILLER_0_66_15
*1068 FILLER_0_66_18
*1069 FILLER_0_66_29
*1070 FILLER_0_66_3
*1071 FILLER_0_66_57
*1072 FILLER_0_66_69
*1073 FILLER_0_67_23
*1074 FILLER_0_67_3
*1075 FILLER_0_67_57
*1076 FILLER_0_67_69
*1077 FILLER_0_67_9
*1078 FILLER_0_68_3
*1079 FILLER_0_68_35
*1080 FILLER_0_68_7
*1081 FILLER_0_68_80
*1082 FILLER_0_69_15
*1083 FILLER_0_69_23
*1084 FILLER_0_69_3
*1085 FILLER_0_69_73
*1086 FILLER_0_6_15
*1087 FILLER_0_6_27
*1088 FILLER_0_6_29
*1089 FILLER_0_6_3
*1090 FILLER_0_6_41
*1091 FILLER_0_6_53
*1092 FILLER_0_6_65
*1093 FILLER_0_6_77
*1094 FILLER_0_70_15
*1095 FILLER_0_70_27
*1096 FILLER_0_70_29
*1097 FILLER_0_70_3
*1098 FILLER_0_70_33
*1099 FILLER_0_70_68
*1100 FILLER_0_70_72
*1101 FILLER_0_70_80
*1102 FILLER_0_71_15
*1103 FILLER_0_71_23
*1104 FILLER_0_71_3
*1105 FILLER_0_71_57
*1106 FILLER_0_71_69
*1107 FILLER_0_72_15
*1108 FILLER_0_72_29
*1109 FILLER_0_72_3
*1110 FILLER_0_72_35
*1111 FILLER_0_72_59
*1112 FILLER_0_72_71
*1113 FILLER_0_72_79
*1114 FILLER_0_73_15
*1115 FILLER_0_73_23
*1116 FILLER_0_73_3
*1117 FILLER_0_73_57
*1118 FILLER_0_73_69
*1119 FILLER_0_74_15
*1120 FILLER_0_74_25
*1121 FILLER_0_74_29
*1122 FILLER_0_74_3
*1123 FILLER_0_74_33
*1124 FILLER_0_74_45
*1125 FILLER_0_74_53
*1126 FILLER_0_74_59
*1127 FILLER_0_74_71
*1128 FILLER_0_74_79
*1129 FILLER_0_75_15
*1130 FILLER_0_75_23
*1131 FILLER_0_75_3
*1132 FILLER_0_75_57
*1133 FILLER_0_76_3
*1134 FILLER_0_76_35
*1135 FILLER_0_76_59
*1136 FILLER_0_76_7
*1137 FILLER_0_76_71
*1138 FILLER_0_76_79
*1139 FILLER_0_77_11
*1140 FILLER_0_77_3
*1141 FILLER_0_77_57
*1142 FILLER_0_77_69
*1143 FILLER_0_78_15
*1144 FILLER_0_78_29
*1145 FILLER_0_78_3
*1146 FILLER_0_78_35
*1147 FILLER_0_78_59
*1148 FILLER_0_78_71
*1149 FILLER_0_78_79
*1150 FILLER_0_79_15
*1151 FILLER_0_79_23
*1152 FILLER_0_79_3
*1153 FILLER_0_79_68
*1154 FILLER_0_79_72
*1155 FILLER_0_79_80
*1156 FILLER_0_7_15
*1157 FILLER_0_7_27
*1158 FILLER_0_7_3
*1159 FILLER_0_7_39
*1160 FILLER_0_7_51
*1161 FILLER_0_7_55
*1162 FILLER_0_7_57
*1163 FILLER_0_7_69
*1164 FILLER_0_80_15
*1165 FILLER_0_80_29
*1166 FILLER_0_80_3
*1167 FILLER_0_80_69
*1168 FILLER_0_80_73
*1169 FILLER_0_81_15
*1170 FILLER_0_81_23
*1171 FILLER_0_81_3
*1172 FILLER_0_81_57
*1173 FILLER_0_81_69
*1174 FILLER_0_82_29
*1175 FILLER_0_82_3
*1176 FILLER_0_82_35
*1177 FILLER_0_82_59
*1178 FILLER_0_82_7
*1179 FILLER_0_82_71
*1180 FILLER_0_82_79
*1181 FILLER_0_83_15
*1182 FILLER_0_83_23
*1183 FILLER_0_83_3
*1184 FILLER_0_83_57
*1185 FILLER_0_83_69
*1186 FILLER_0_84_3
*1187 FILLER_0_84_33
*1188 FILLER_0_84_64
*1189 FILLER_0_84_68
*1190 FILLER_0_84_80
*1191 FILLER_0_85_15
*1192 FILLER_0_85_23
*1193 FILLER_0_85_3
*1194 FILLER_0_85_57
*1195 FILLER_0_85_69
*1196 FILLER_0_86_15
*1197 FILLER_0_86_29
*1198 FILLER_0_86_3
*1199 FILLER_0_86_35
*1200 FILLER_0_86_59
*1201 FILLER_0_86_71
*1202 FILLER_0_86_79
*1203 FILLER_0_87_15
*1204 FILLER_0_87_23
*1205 FILLER_0_87_3
*1206 FILLER_0_87_57
*1207 FILLER_0_87_69
*1208 FILLER_0_88_15
*1209 FILLER_0_88_29
*1210 FILLER_0_88_3
*1211 FILLER_0_88_58
*1212 FILLER_0_88_70
*1213 FILLER_0_88_78
*1214 FILLER_0_89_15
*1215 FILLER_0_89_23
*1216 FILLER_0_89_3
*1217 FILLER_0_89_57
*1218 FILLER_0_89_69
*1219 FILLER_0_8_15
*1220 FILLER_0_8_27
*1221 FILLER_0_8_29
*1222 FILLER_0_8_3
*1223 FILLER_0_8_41
*1224 FILLER_0_8_53
*1225 FILLER_0_8_65
*1226 FILLER_0_8_77
*1227 FILLER_0_90_15
*1228 FILLER_0_90_29
*1229 FILLER_0_90_3
*1230 FILLER_0_90_33
*1231 FILLER_0_90_57
*1232 FILLER_0_90_69
*1233 FILLER_0_91_15
*1234 FILLER_0_91_23
*1235 FILLER_0_91_3
*1236 FILLER_0_91_57
*1237 FILLER_0_91_69
*1238 FILLER_0_92_15
*1239 FILLER_0_92_3
*1240 FILLER_0_92_33
*1241 FILLER_0_92_59
*1242 FILLER_0_92_71
*1243 FILLER_0_92_79
*1244 FILLER_0_93_15
*1245 FILLER_0_93_23
*1246 FILLER_0_93_3
*1247 FILLER_0_93_57
*1248 FILLER_0_93_69
*1249 FILLER_0_94_15
*1250 FILLER_0_94_29
*1251 FILLER_0_94_3
*1252 FILLER_0_94_35
*1253 FILLER_0_94_59
*1254 FILLER_0_94_71
*1255 FILLER_0_94_79
*1256 FILLER_0_95_15
*1257 FILLER_0_95_23
*1258 FILLER_0_95_3
*1259 FILLER_0_95_57
*1260 FILLER_0_95_69
*1261 FILLER_0_96_15
*1262 FILLER_0_96_3
*1263 FILLER_0_96_35
*1264 FILLER_0_96_59
*1265 FILLER_0_96_71
*1266 FILLER_0_96_79
*1267 FILLER_0_97_15
*1268 FILLER_0_97_23
*1269 FILLER_0_97_3
*1270 FILLER_0_97_57
*1271 FILLER_0_97_69
*1272 FILLER_0_98_3
*1273 FILLER_0_98_35
*1274 FILLER_0_98_71
*1275 FILLER_0_98_75
*1276 FILLER_0_99_15
*1277 FILLER_0_99_23
*1278 FILLER_0_99_3
*1279 FILLER_0_99_57
*1280 FILLER_0_99_69
*1281 FILLER_0_9_15
*1282 FILLER_0_9_27
*1283 FILLER_0_9_3
*1284 FILLER_0_9_39
*1285 FILLER_0_9_51
*1286 FILLER_0_9_55
*1287 FILLER_0_9_57
*1288 FILLER_0_9_69
*1289 PHY_0
*1290 PHY_1
*1291 PHY_10
*1292 PHY_100
*1293 PHY_101
*1294 PHY_102
*1295 PHY_103
*1296 PHY_104
*1297 PHY_105
*1298 PHY_106
*1299 PHY_107
*1300 PHY_108
*1301 PHY_109
*1302 PHY_11
*1303 PHY_110
*1304 PHY_111
*1305 PHY_112
*1306 PHY_113
*1307 PHY_114
*1308 PHY_115
*1309 PHY_116
*1310 PHY_117
*1311 PHY_118
*1312 PHY_119
*1313 PHY_12
*1314 PHY_120
*1315 PHY_121
*1316 PHY_122
*1317 PHY_123
*1318 PHY_124
*1319 PHY_125
*1320 PHY_126
*1321 PHY_127
*1322 PHY_128
*1323 PHY_129
*1324 PHY_13
*1325 PHY_130
*1326 PHY_131
*1327 PHY_132
*1328 PHY_133
*1329 PHY_134
*1330 PHY_135
*1331 PHY_136
*1332 PHY_137
*1333 PHY_138
*1334 PHY_139
*1335 PHY_14
*1336 PHY_140
*1337 PHY_141
*1338 PHY_142
*1339 PHY_143
*1340 PHY_144
*1341 PHY_145
*1342 PHY_146
*1343 PHY_147
*1344 PHY_148
*1345 PHY_149
*1346 PHY_15
*1347 PHY_150
*1348 PHY_151
*1349 PHY_152
*1350 PHY_153
*1351 PHY_154
*1352 PHY_155
*1353 PHY_156
*1354 PHY_157
*1355 PHY_158
*1356 PHY_159
*1357 PHY_16
*1358 PHY_160
*1359 PHY_161
*1360 PHY_162
*1361 PHY_163
*1362 PHY_164
*1363 PHY_165
*1364 PHY_166
*1365 PHY_167
*1366 PHY_168
*1367 PHY_169
*1368 PHY_17
*1369 PHY_170
*1370 PHY_171
*1371 PHY_172
*1372 PHY_173
*1373 PHY_174
*1374 PHY_175
*1375 PHY_176
*1376 PHY_177
*1377 PHY_178
*1378 PHY_179
*1379 PHY_18
*1380 PHY_180
*1381 PHY_181
*1382 PHY_182
*1383 PHY_183
*1384 PHY_184
*1385 PHY_185
*1386 PHY_186
*1387 PHY_187
*1388 PHY_188
*1389 PHY_189
*1390 PHY_19
*1391 PHY_190
*1392 PHY_191
*1393 PHY_192
*1394 PHY_193
*1395 PHY_194
*1396 PHY_195
*1397 PHY_196
*1398 PHY_197
*1399 PHY_198
*1400 PHY_199
*1401 PHY_2
*1402 PHY_20
*1403 PHY_200
*1404 PHY_201
*1405 PHY_202
*1406 PHY_203
*1407 PHY_204
*1408 PHY_205
*1409 PHY_206
*1410 PHY_207
*1411 PHY_208
*1412 PHY_209
*1413 PHY_21
*1414 PHY_210
*1415 PHY_211
*1416 PHY_212
*1417 PHY_213
*1418 PHY_214
*1419 PHY_215
*1420 PHY_216
*1421 PHY_217
*1422 PHY_218
*1423 PHY_219
*1424 PHY_22
*1425 PHY_220
*1426 PHY_221
*1427 PHY_222
*1428 PHY_223
*1429 PHY_224
*1430 PHY_225
*1431 PHY_226
*1432 PHY_227
*1433 PHY_228
*1434 PHY_229
*1435 PHY_23
*1436 PHY_230
*1437 PHY_231
*1438 PHY_232
*1439 PHY_233
*1440 PHY_234
*1441 PHY_235
*1442 PHY_236
*1443 PHY_237
*1444 PHY_238
*1445 PHY_239
*1446 PHY_24
*1447 PHY_240
*1448 PHY_241
*1449 PHY_242
*1450 PHY_243
*1451 PHY_244
*1452 PHY_245
*1453 PHY_246
*1454 PHY_247
*1455 PHY_248
*1456 PHY_249
*1457 PHY_25
*1458 PHY_250
*1459 PHY_251
*1460 PHY_252
*1461 PHY_253
*1462 PHY_254
*1463 PHY_255
*1464 PHY_256
*1465 PHY_257
*1466 PHY_258
*1467 PHY_259
*1468 PHY_26
*1469 PHY_260
*1470 PHY_261
*1471 PHY_262
*1472 PHY_263
*1473 PHY_264
*1474 PHY_265
*1475 PHY_266
*1476 PHY_267
*1477 PHY_268
*1478 PHY_269
*1479 PHY_27
*1480 PHY_270
*1481 PHY_271
*1482 PHY_272
*1483 PHY_273
*1484 PHY_274
*1485 PHY_275
*1486 PHY_276
*1487 PHY_277
*1488 PHY_28
*1489 PHY_29
*1490 PHY_3
*1491 PHY_30
*1492 PHY_31
*1493 PHY_32
*1494 PHY_33
*1495 PHY_34
*1496 PHY_35
*1497 PHY_36
*1498 PHY_37
*1499 PHY_38
*1500 PHY_39
*1501 PHY_4
*1502 PHY_40
*1503 PHY_41
*1504 PHY_42
*1505 PHY_43
*1506 PHY_44
*1507 PHY_45
*1508 PHY_46
*1509 PHY_47
*1510 PHY_48
*1511 PHY_49
*1512 PHY_5
*1513 PHY_50
*1514 PHY_51
*1515 PHY_52
*1516 PHY_53
*1517 PHY_54
*1518 PHY_55
*1519 PHY_56
*1520 PHY_57
*1521 PHY_58
*1522 PHY_59
*1523 PHY_6
*1524 PHY_60
*1525 PHY_61
*1526 PHY_62
*1527 PHY_63
*1528 PHY_64
*1529 PHY_65
*1530 PHY_66
*1531 PHY_67
*1532 PHY_68
*1533 PHY_69
*1534 PHY_7
*1535 PHY_70
*1536 PHY_71
*1537 PHY_72
*1538 PHY_73
*1539 PHY_74
*1540 PHY_75
*1541 PHY_76
*1542 PHY_77
*1543 PHY_78
*1544 PHY_79
*1545 PHY_8
*1546 PHY_80
*1547 PHY_81
*1548 PHY_82
*1549 PHY_83
*1550 PHY_84
*1551 PHY_85
*1552 PHY_86
*1553 PHY_87
*1554 PHY_88
*1555 PHY_89
*1556 PHY_9
*1557 PHY_90
*1558 PHY_91
*1559 PHY_92
*1560 PHY_93
*1561 PHY_94
*1562 PHY_95
*1563 PHY_96
*1564 PHY_97
*1565 PHY_98
*1566 PHY_99
*1567 TAP_278
*1568 TAP_279
*1569 TAP_280
*1570 TAP_281
*1571 TAP_282
*1572 TAP_283
*1573 TAP_284
*1574 TAP_285
*1575 TAP_286
*1576 TAP_287
*1577 TAP_288
*1578 TAP_289
*1579 TAP_290
*1580 TAP_291
*1581 TAP_292
*1582 TAP_293
*1583 TAP_294
*1584 TAP_295
*1585 TAP_296
*1586 TAP_297
*1587 TAP_298
*1588 TAP_299
*1589 TAP_300
*1590 TAP_301
*1591 TAP_302
*1592 TAP_303
*1593 TAP_304
*1594 TAP_305
*1595 TAP_306
*1596 TAP_307
*1597 TAP_308
*1598 TAP_309
*1599 TAP_310
*1600 TAP_311
*1601 TAP_312
*1602 TAP_313
*1603 TAP_314
*1604 TAP_315
*1605 TAP_316
*1606 TAP_317
*1607 TAP_318
*1608 TAP_319
*1609 TAP_320
*1610 TAP_321
*1611 TAP_322
*1612 TAP_323
*1613 TAP_324
*1614 TAP_325
*1615 TAP_326
*1616 TAP_327
*1617 TAP_328
*1618 TAP_329
*1619 TAP_330
*1620 TAP_331
*1621 TAP_332
*1622 TAP_333
*1623 TAP_334
*1624 TAP_335
*1625 TAP_336
*1626 TAP_337
*1627 TAP_338
*1628 TAP_339
*1629 TAP_340
*1630 TAP_341
*1631 TAP_342
*1632 TAP_343
*1633 TAP_344
*1634 TAP_345
*1635 TAP_346
*1636 TAP_347
*1637 TAP_348
*1638 TAP_349
*1639 TAP_350
*1640 TAP_351
*1641 TAP_352
*1642 TAP_353
*1643 TAP_354
*1644 TAP_355
*1645 TAP_356
*1646 TAP_357
*1647 TAP_358
*1648 TAP_359
*1649 TAP_360
*1650 TAP_361
*1651 TAP_362
*1652 TAP_363
*1653 TAP_364
*1654 TAP_365
*1655 TAP_366
*1656 TAP_367
*1657 TAP_368
*1658 TAP_369
*1659 TAP_370
*1660 TAP_371
*1661 TAP_372
*1662 TAP_373
*1663 TAP_374
*1664 TAP_375
*1665 TAP_376
*1666 TAP_377
*1667 TAP_378
*1668 TAP_379
*1669 TAP_380
*1670 TAP_381
*1671 TAP_382
*1672 TAP_383
*1673 TAP_384
*1674 TAP_385
*1675 TAP_386
*1676 TAP_387
*1677 TAP_388
*1678 TAP_389
*1679 TAP_390
*1680 TAP_391
*1681 TAP_392
*1682 TAP_393
*1683 TAP_394
*1684 TAP_395
*1685 TAP_396
*1686 TAP_397
*1687 TAP_398
*1688 TAP_399
*1689 TAP_400
*1690 TAP_401
*1691 TAP_402
*1692 TAP_403
*1693 TAP_404
*1694 TAP_405
*1695 TAP_406
*1696 TAP_407
*1697 TAP_408
*1698 TAP_409
*1699 TAP_410
*1700 TAP_411
*1701 TAP_412
*1702 TAP_413
*1703 TAP_414
*1704 TAP_415
*1705 TAP_416
*1706 TAP_417
*1707 TAP_418
*1708 _116_
*1709 _117_
*1710 _118_
*1711 _119_
*1712 _120_
*1713 _121_
*1714 _122_
*1715 _123_
*1716 _124_
*1717 _125_
*1718 _126_
*1719 _127_
*1720 _128_
*1721 _129_
*1722 _130_
*1723 _131_
*1724 _132_
*1725 _133_
*1726 _134_
*1727 _135_
*1728 _136_
*1729 _137_
*1730 _138_
*1731 _139_
*1732 _140_
*1733 _141_
*1734 _142_
*1735 _143_
*1736 _144_
*1737 _145_
*1738 _146_
*1739 _147_
*1740 _148_
*1741 _149_
*1742 _150_
*1743 _151_
*1744 _152_
*1745 _153_
*1746 _154_
*1747 _155_
*1748 _156_
*1749 _157_
*1750 _158_
*1751 _159_
*1752 _160_
*1753 _161_
*1754 _162_
*1755 _163_
*1756 _164_
*1757 _165_
*1758 _166_
*1759 _167_
*1760 _168_
*1761 _169_
*1762 _170_
*1763 _171_
*1764 _172_
*1765 _173_
*1766 _174_
*1767 _175_
*1768 _176_
*1769 _177_
*1770 _178_
*1771 _179_
*1772 _180_
*1773 _181_
*1774 _182_
*1775 _183_
*1776 _184_
*1777 _185_
*1778 _186_
*1779 _187_
*1780 _188_
*1781 _189_
*1782 _190_
*1783 _191_
*1784 _192_
*1785 _193_
*1786 _194_
*1787 _195_
*1788 _196_
*1789 _197_
*1790 _198_
*1791 _199_
*1792 _200_
*1793 _201_
*1794 _202_
*1795 _203_
*1796 _204_
*1797 _205_
*1798 _206_
*1799 _207_
*1800 _208_
*1801 _209_
*1802 _210_
*1803 _211_
*1804 _212_
*1805 _213_
*1806 _214_
*1807 _215_
*1808 _216_
*1809 _217_
*1810 _218_
*1811 _219_
*1812 _220_
*1813 _221_
*1814 _222_
*1815 _223_
*1816 _224_
*1817 _225_
*1818 _226_
*1819 _227_
*1820 _228_
*1821 _229_
*1822 _230_
*1823 _231_
*1824 _232_
*1825 _233_
*1826 _234_
*1827 _235_
*1828 _236_
*1829 _237_
*1830 _238_
*1831 _239_
*1832 _240_
*1833 _241_
*1834 _242_
*1835 _243_
*1836 _244_
*1837 _245_
*1838 _246_
*1839 _247_
*1840 _248_
*1841 _249_
*1842 _250_
*1843 _251_
*1844 _252_
*1845 _253_
*1846 _254_
*1847 _255_
*1848 _256_
*1849 _257_
*1850 _258_
*1851 _259_
*1852 _260_
*1853 _261_
*1854 _262_
*1855 _263_
*1856 _264_
*1857 _265_
*1858 _266_
*1859 _267_
*1860 _268_
*1861 _269_
*1862 _270_
*1863 _271_
*1864 _272_
*1865 _273_
*1866 _274_
*1867 _275_
*1868 _276_
*1869 _277_
*1870 _278_
*1871 _279_
*1872 _280_
*1873 _281_
*1874 _282_
*1875 _283_
*1876 _284_
*1877 _285_
*1878 _286_
*1879 _287_
*1880 _288_
*1881 _289_
*1882 _290_
*1883 _291_
*1884 _292_
*1885 _293_
*1886 _294_
*1887 _295_
*1888 _296_
*1889 _297_
*1890 _298_
*1891 _299_
*1892 _300_
*1893 _301_
*1894 _302_
*1895 _303_
*1896 _304_
*1897 _305_
*1898 _306_
*1899 _307_
*1900 _308_
*1901 _309_
*1902 _310_
*1903 _311_
*1904 _312_
*1905 _313_
*1906 _314_
*1907 _315_
*1908 _316_
*1909 _317_
*1910 _318_
*1911 _319_
*1912 _320_
*1913 _321_
*1914 _322_
*1915 _323_
*1916 _324_
*1917 _325_
*1918 _326_
*1919 _327_
*1920 _328_
*1921 _329_
*1922 _330_
*1923 _331_
*1924 _332_
*1925 _333_
*1926 _334_
*1927 _335_
*1928 _336_
*1929 _337_
*1930 _338_
*1931 _339_
*1932 _340_
*1933 _341_
*1934 _342_
*1935 _343_
*1936 _344_
*1937 _345_
*1938 _346_
*1939 _347_
*1940 _348_
*1941 _349_
*1942 clkbuf_0_clk_i
*1943 clkbuf_3_0_0_clk_i
*1944 clkbuf_3_1_0_clk_i
*1945 clkbuf_3_2_0_clk_i
*1946 clkbuf_3_3_0_clk_i
*1947 clkbuf_3_4_0_clk_i
*1948 clkbuf_3_5_0_clk_i
*1949 clkbuf_3_6_0_clk_i
*1950 clkbuf_3_7_0_clk_i
*1951 clkbuf_4_0__f_clk_i
*1952 clkbuf_4_10__f_clk_i
*1953 clkbuf_4_11__f_clk_i
*1954 clkbuf_4_12__f_clk_i
*1955 clkbuf_4_13__f_clk_i
*1956 clkbuf_4_14__f_clk_i
*1957 clkbuf_4_15__f_clk_i
*1958 clkbuf_4_1__f_clk_i
*1959 clkbuf_4_2__f_clk_i
*1960 clkbuf_4_3__f_clk_i
*1961 clkbuf_4_4__f_clk_i
*1962 clkbuf_4_5__f_clk_i
*1963 clkbuf_4_6__f_clk_i
*1964 clkbuf_4_7__f_clk_i
*1965 clkbuf_4_8__f_clk_i
*1966 clkbuf_4_9__f_clk_i
*1967 fanout1
*1968 fanout10
*1969 fanout11
*1970 fanout12
*1971 fanout13
*1972 fanout14
*1973 fanout15
*1974 fanout16
*1975 fanout17
*1976 fanout18
*1977 fanout19
*1978 fanout2
*1979 fanout20
*1980 fanout21
*1981 fanout22
*1982 fanout23
*1983 fanout24
*1984 fanout25
*1985 fanout26
*1986 fanout27
*1987 fanout28
*1988 fanout29
*1989 fanout3
*1990 fanout30
*1991 fanout31
*1992 fanout32
*1993 fanout33
*1994 fanout34
*1995 fanout35
*1996 fanout36
*1997 fanout4
*1998 fanout5
*1999 fanout6
*2000 fanout7
*2001 fanout8
*2002 fanout9

*PORTS
busy_o O
clk_i I
mstream_i I
mstream_o[0] O
mstream_o[100] O
mstream_o[101] O
mstream_o[102] O
mstream_o[103] O
mstream_o[104] O
mstream_o[105] O
mstream_o[106] O
mstream_o[107] O
mstream_o[108] O
mstream_o[109] O
mstream_o[10] O
mstream_o[110] O
mstream_o[111] O
mstream_o[112] O
mstream_o[113] O
mstream_o[114] O
mstream_o[115] O
mstream_o[11] O
mstream_o[12] O
mstream_o[13] O
mstream_o[14] O
mstream_o[15] O
mstream_o[16] O
mstream_o[17] O
mstream_o[18] O
mstream_o[19] O
mstream_o[1] O
mstream_o[20] O
mstream_o[21] O
mstream_o[22] O
mstream_o[23] O
mstream_o[24] O
mstream_o[25] O
mstream_o[26] O
mstream_o[27] O
mstream_o[28] O
mstream_o[29] O
mstream_o[2] O
mstream_o[30] O
mstream_o[31] O
mstream_o[32] O
mstream_o[33] O
mstream_o[34] O
mstream_o[35] O
mstream_o[36] O
mstream_o[37] O
mstream_o[38] O
mstream_o[39] O
mstream_o[3] O
mstream_o[40] O
mstream_o[41] O
mstream_o[42] O
mstream_o[43] O
mstream_o[44] O
mstream_o[45] O
mstream_o[46] O
mstream_o[47] O
mstream_o[48] O
mstream_o[49] O
mstream_o[4] O
mstream_o[50] O
mstream_o[51] O
mstream_o[52] O
mstream_o[53] O
mstream_o[54] O
mstream_o[55] O
mstream_o[56] O
mstream_o[57] O
mstream_o[58] O
mstream_o[59] O
mstream_o[5] O
mstream_o[60] O
mstream_o[61] O
mstream_o[62] O
mstream_o[63] O
mstream_o[64] O
mstream_o[65] O
mstream_o[66] O
mstream_o[67] O
mstream_o[68] O
mstream_o[69] O
mstream_o[6] O
mstream_o[70] O
mstream_o[71] O
mstream_o[72] O
mstream_o[73] O
mstream_o[74] O
mstream_o[75] O
mstream_o[76] O
mstream_o[77] O
mstream_o[78] O
mstream_o[79] O
mstream_o[7] O
mstream_o[80] O
mstream_o[81] O
mstream_o[82] O
mstream_o[83] O
mstream_o[84] O
mstream_o[85] O
mstream_o[86] O
mstream_o[87] O
mstream_o[88] O
mstream_o[89] O
mstream_o[8] O
mstream_o[90] O
mstream_o[91] O
mstream_o[92] O
mstream_o[93] O
mstream_o[94] O
mstream_o[95] O
mstream_o[96] O
mstream_o[97] O
mstream_o[98] O
mstream_o[99] O
mstream_o[9] O
nrst_i I
sstream_i[0] I
sstream_i[100] I
sstream_i[101] I
sstream_i[102] I
sstream_i[103] I
sstream_i[104] I
sstream_i[105] I
sstream_i[106] I
sstream_i[107] I
sstream_i[108] I
sstream_i[109] I
sstream_i[10] I
sstream_i[110] I
sstream_i[111] I
sstream_i[112] I
sstream_i[113] I
sstream_i[114] I
sstream_i[115] I
sstream_i[11] I
sstream_i[12] I
sstream_i[13] I
sstream_i[14] I
sstream_i[15] I
sstream_i[16] I
sstream_i[17] I
sstream_i[18] I
sstream_i[19] I
sstream_i[1] I
sstream_i[20] I
sstream_i[21] I
sstream_i[22] I
sstream_i[23] I
sstream_i[24] I
sstream_i[25] I
sstream_i[26] I
sstream_i[27] I
sstream_i[28] I
sstream_i[29] I
sstream_i[2] I
sstream_i[30] I
sstream_i[31] I
sstream_i[32] I
sstream_i[33] I
sstream_i[34] I
sstream_i[35] I
sstream_i[36] I
sstream_i[37] I
sstream_i[38] I
sstream_i[39] I
sstream_i[3] I
sstream_i[40] I
sstream_i[41] I
sstream_i[42] I
sstream_i[43] I
sstream_i[44] I
sstream_i[45] I
sstream_i[46] I
sstream_i[47] I
sstream_i[48] I
sstream_i[49] I
sstream_i[4] I
sstream_i[50] I
sstream_i[51] I
sstream_i[52] I
sstream_i[53] I
sstream_i[54] I
sstream_i[55] I
sstream_i[56] I
sstream_i[57] I
sstream_i[58] I
sstream_i[59] I
sstream_i[5] I
sstream_i[60] I
sstream_i[61] I
sstream_i[62] I
sstream_i[63] I
sstream_i[64] I
sstream_i[65] I
sstream_i[66] I
sstream_i[67] I
sstream_i[68] I
sstream_i[69] I
sstream_i[6] I
sstream_i[70] I
sstream_i[71] I
sstream_i[72] I
sstream_i[73] I
sstream_i[74] I
sstream_i[75] I
sstream_i[76] I
sstream_i[77] I
sstream_i[78] I
sstream_i[79] I
sstream_i[7] I
sstream_i[80] I
sstream_i[81] I
sstream_i[82] I
sstream_i[83] I
sstream_i[84] I
sstream_i[85] I
sstream_i[86] I
sstream_i[87] I
sstream_i[88] I
sstream_i[89] I
sstream_i[8] I
sstream_i[90] I
sstream_i[91] I
sstream_i[92] I
sstream_i[93] I
sstream_i[94] I
sstream_i[95] I
sstream_i[96] I
sstream_i[97] I
sstream_i[98] I
sstream_i[99] I
sstream_i[9] I
sstream_o O

*D_NET *1 0.0417831
*CONN
*P busy_o O
*I *1821:X O *D sky130_fd_sc_hd__or2_4
*CAP
1 busy_o 0.0110066
2 *1821:X 0.000365232
3 *1:16 0.0125267
4 *1:12 0.00188533
5 busy_o mstream_o[0] 0.000140608
6 busy_o mstream_o[10] 0.000140608
7 busy_o mstream_o[11] 0.000115714
8 busy_o mstream_o[13] 0.000115714
9 busy_o mstream_o[14] 0.000142315
10 busy_o mstream_o[16] 0.000140608
11 busy_o mstream_o[18] 0.000140608
12 busy_o mstream_o[19] 0.000115714
13 busy_o mstream_o[1] 0.000115714
14 busy_o mstream_o[20] 0.000140608
15 busy_o mstream_o[21] 0.000115714
16 busy_o mstream_o[23] 0.000115714
17 busy_o mstream_o[24] 0.000140608
18 busy_o mstream_o[26] 0.000140608
19 busy_o mstream_o[28] 0.000140608
20 busy_o mstream_o[29] 0.000115714
21 busy_o mstream_o[31] 6.27457e-05
22 busy_o mstream_o[32] 2.09826e-05
23 busy_o mstream_o[33] 0.000115714
24 busy_o mstream_o[34] 0.000140608
25 busy_o mstream_o[36] 0.000140608
26 busy_o mstream_o[37] 0.000115714
27 busy_o mstream_o[38] 0.000140608
28 busy_o mstream_o[39] 0.000115714
29 busy_o mstream_o[3] 0.000115714
30 busy_o mstream_o[41] 0.000115714
31 busy_o mstream_o[42] 2.09826e-05
32 busy_o mstream_o[43] 0.000115714
33 busy_o mstream_o[44] 0.000140608
34 busy_o mstream_o[46] 0.000139893
35 busy_o mstream_o[47] 0.000117421
36 busy_o mstream_o[48] 0.000140608
37 busy_o mstream_o[49] 0.000115714
38 busy_o mstream_o[4] 2.22043e-05
39 busy_o mstream_o[51] 0.000115714
40 busy_o mstream_o[52] 0.000140608
41 busy_o mstream_o[54] 0.000140608
42 busy_o mstream_o[56] 0.000140608
43 busy_o mstream_o[57] 0.000115714
44 busy_o mstream_o[58] 0.000140608
45 busy_o mstream_o[59] 0.000115714
46 busy_o mstream_o[5] 0.000115714
47 busy_o mstream_o[61] 0.000115714
48 busy_o mstream_o[62] 0.000140608
49 busy_o mstream_o[63] 4.04012e-05
50 busy_o mstream_o[64] 0.000139386
51 busy_o mstream_o[65] 0.000117421
52 busy_o mstream_o[66] 0.000140608
53 busy_o mstream_o[67] 0.000115714
54 busy_o mstream_o[69] 0.000115714
55 busy_o mstream_o[6] 0.000140608
56 busy_o mstream_o[70] 2.09826e-05
57 busy_o mstream_o[71] 0.000115714
58 busy_o mstream_o[72] 0.000140608
59 busy_o mstream_o[74] 0.000140608
60 busy_o mstream_o[75] 0.000115714
61 busy_o mstream_o[76] 0.000140608
62 busy_o mstream_o[77] 0.000115714
63 busy_o mstream_o[79] 0.000115714
64 busy_o mstream_o[80] 0.000140608
65 busy_o mstream_o[81] 0.000115714
66 busy_o mstream_o[82] 0.000140608
67 busy_o mstream_o[84] 0.000140608
68 busy_o mstream_o[85] 0.000115714
69 busy_o mstream_o[86] 0.000140608
70 busy_o mstream_o[87] 0.000115714
71 busy_o mstream_o[89] 0.000115714
72 busy_o mstream_o[8] 0.000140608
73 busy_o mstream_o[90] 0.000140608
74 busy_o mstream_o[92] 0.000140608
75 busy_o mstream_o[94] 0.000140608
76 busy_o mstream_o[95] 4.04012e-05
77 busy_o mstream_o[9] 0.000115714
78 busy_o *3:9 0.00594157
79 busy_o *356:90 0
80 busy_o *356:110 0
81 busy_o *356:126 0
82 *1:12 mstream_o[109] 0.000316981
83 *1:16 mstream_o[100] 0.00013855
84 *1:16 mstream_o[102] 0.00013855
85 *1:16 mstream_o[103] 0.000113778
86 *1:16 mstream_o[104] 0.000140258
87 *1:16 mstream_o[105] 0.000113778
88 *1:16 mstream_o[107] 0.000113778
89 *1:16 mstream_o[108] 1.94879e-05
90 *1:16 mstream_o[97] 0.000113778
91 *1:16 mstream_o[98] 1.94879e-05
92 *1:16 mstream_o[99] 0.000113778
*RES
1 *1821:X *1:12 20.9875 
2 *1:12 *1:16 30.4286 
3 *1:16 busy_o 267.795 
*END

*D_NET *2 0.0233494
*CONN
*P clk_i I
*I *1942:A I *D sky130_fd_sc_hd__clkbuf_16
*CAP
1 clk_i 0.00199662
2 *1942:A 0
3 *2:13 0.00854322
4 *2:11 0.0105398
5 *2:13 mstream_o[15] 4.5534e-05
6 *2:13 mstream_o[17] 8.74238e-05
7 *2:13 mstream_o[22] 0
8 *2:13 mstream_o[25] 2.11419e-05
9 *2:13 mstream_o[27] 5.92326e-05
10 *2:13 mstream_o[2] 0
11 *2:13 mstream_o[30] 0
12 *2:13 mstream_o[35] 0.000165152
13 *2:13 mstream_o[40] 0
14 *2:13 mstream_o[45] 8.74238e-05
15 *2:13 mstream_o[50] 0
16 *2:13 mstream_o[53] 1.53815e-05
17 *2:13 mstream_o[55] 0
18 *2:13 mstream_o[7] 8.74238e-05
19 *2:13 *1853:CLK 0.000407127
20 *2:13 *1853:RESET_B 0.000101545
21 *2:13 *1996:A 0.000593612
22 *2:13 *357:16 0.000350198
23 *2:13 *404:14 0.000248486
24 *2:13 *410:26 0
25 *2:13 *410:44 0
26 *2:13 *410:70 0
27 *2:13 *410:83 0
*RES
1 clk_i *2:11 43.6607 
2 *2:11 *2:13 160.107 
3 *2:13 *1942:A 13.8 
*END

*D_NET *3 0.0192536
*CONN
*P mstream_i I
*I *1941:A I *D sky130_fd_sc_hd__buf_12
*CAP
1 mstream_i 0.000360025
2 *1941:A 8.31263e-05
3 *3:9 0.00617238
4 *3:7 0.00644928
5 *1941:A mstream_o[58] 0.000185118
6 *3:7 mstream_o[0] 6.20702e-05
7 *3:9 *356:10 0
8 *3:9 *356:12 0
9 *3:9 *356:16 0
10 *3:9 *356:18 0
11 *3:9 *356:22 0
12 *3:9 *356:90 0
13 *3:9 *410:10 0
14 *3:9 *410:26 0
15 busy_o *3:9 0.00594157
*RES
1 mstream_i *3:7 4.33433 
2 *3:7 *3:9 142.045 
3 *3:9 *1941:A 15.5679 
*END

*D_NET *4 0.00262492
*CONN
*P mstream_o[0] O
*I *1822:Q O *D sky130_fd_sc_hd__dfrtp_4
*CAP
1 mstream_o[0] 0.000959238
2 *1822:Q 0.000959238
3 mstream_o[0] mstream_o[1] 0.000145878
4 mstream_o[0] *410:10 0.000357883
5 busy_o mstream_o[0] 0.000140608
6 *3:7 mstream_o[0] 6.20702e-05
*RES
1 *1822:Q mstream_o[0] 29.8955 
*END

*D_NET *5 0.00266769
*CONN
*P mstream_o[100] O
*I *1922:Q O *D sky130_fd_sc_hd__dfrtp_4
*CAP
1 mstream_o[100] 0.000987761
2 *1922:Q 0.000987761
3 mstream_o[100] mstream_o[101] 0.000159848
4 mstream_o[100] mstream_o[99] 6.79725e-05
5 mstream_o[100] *1995:A 0.000143375
6 mstream_o[100] *356:158 0
7 mstream_o[100] *409:6 0.000182425
8 *1:16 mstream_o[100] 0.00013855
*RES
1 *1922:Q mstream_o[100] 29.5568 
*END

*D_NET *6 0.00266372
*CONN
*P mstream_o[101] O
*I *1923:Q O *D sky130_fd_sc_hd__dfrtp_4
*CAP
1 mstream_o[101] 0.00111644
2 *1923:Q 0.00111644
3 mstream_o[101] mstream_o[102] 0.000173537
4 mstream_o[101] *1917:CLK 0
5 mstream_o[101] *364:14 9.74453e-05
6 mstream_o[100] mstream_o[101] 0.000159848
*RES
1 *1923:Q mstream_o[101] 23.3349 
*END

*D_NET *7 0.00256726
*CONN
*P mstream_o[102] O
*I *1924:Q O *D sky130_fd_sc_hd__dfrtp_4
*CAP
1 mstream_o[102] 0.00104766
2 *1924:Q 0.00104766
3 mstream_o[102] mstream_o[103] 0.000159848
4 mstream_o[101] mstream_o[102] 0.000173537
5 *1:16 mstream_o[102] 0.00013855
*RES
1 *1924:Q mstream_o[102] 29.5568 
*END

*D_NET *8 0.0018979
*CONN
*P mstream_o[103] O
*I *1925:Q O *D sky130_fd_sc_hd__dfrtp_4
*CAP
1 mstream_o[103] 0.000778151
2 *1925:Q 0.000778151
3 mstream_o[103] mstream_o[104] 6.79725e-05
4 mstream_o[102] mstream_o[103] 0.000159848
5 *1:16 mstream_o[103] 0.000113778
*RES
1 *1925:Q mstream_o[103] 27.4098 
*END

*D_NET *9 0.00273281
*CONN
*P mstream_o[104] O
*I *1926:Q O *D sky130_fd_sc_hd__dfrtp_4
*CAP
1 mstream_o[104] 0.000787961
2 *1926:Q 0.000787961
3 mstream_o[104] mstream_o[105] 0.000159848
4 mstream_o[104] *1956:A 4.38267e-05
5 mstream_o[104] *364:14 0.0003598
6 mstream_o[104] *371:6 0.000312451
7 mstream_o[104] *371:12 7.27282e-05
8 mstream_o[103] mstream_o[104] 6.79725e-05
9 *1:16 mstream_o[104] 0.000140258
*RES
1 *1926:Q mstream_o[104] 29.9854 
*END

*D_NET *10 0.00187762
*CONN
*P mstream_o[105] O
*I *1927:Q O *D sky130_fd_sc_hd__dfrtp_4
*CAP
1 mstream_o[105] 0.000768011
2 *1927:Q 0.000768011
3 mstream_o[105] mstream_o[106] 6.79725e-05
4 mstream_o[104] mstream_o[105] 0.000159848
5 *1:16 mstream_o[105] 0.000113778
*RES
1 *1927:Q mstream_o[105] 27.4098 
*END

*D_NET *11 0.00302601
*CONN
*P mstream_o[106] O
*I *1928:Q O *D sky130_fd_sc_hd__dfrtp_4
*CAP
1 mstream_o[106] 0.00123362
2 *1928:Q 0.00123362
3 mstream_o[106] mstream_o[107] 0.000352799
4 mstream_o[106] *408:157 0.00013801
5 mstream_o[106] *409:80 0
6 mstream_o[106] *409:92 0
7 mstream_o[105] mstream_o[106] 6.79725e-05
*RES
1 *1928:Q mstream_o[106] 21.6429 
*END

*D_NET *12 0.0021593
*CONN
*P mstream_o[107] O
*I *1929:Q O *D sky130_fd_sc_hd__dfrtp_4
*CAP
1 mstream_o[107] 0.00073127
2 *1929:Q 0.00073127
3 mstream_o[107] mstream_o[108] 0.000230181
4 mstream_o[106] mstream_o[107] 0.000352799
5 *1:16 mstream_o[107] 0.000113778
*RES
1 *1929:Q mstream_o[107] 27.4098 
*END

*D_NET *13 0.0023212
*CONN
*P mstream_o[108] O
*I *1930:Q O *D sky130_fd_sc_hd__dfrtp_4
*CAP
1 mstream_o[108] 0.00101868
2 *1930:Q 0.00101868
3 mstream_o[108] mstream_o[109] 3.16528e-05
4 mstream_o[108] *1937:CLK 2.51343e-06
5 mstream_o[107] mstream_o[108] 0.000230181
6 *1:16 mstream_o[108] 1.94879e-05
*RES
1 *1930:Q mstream_o[108] 28.1455 
*END

*D_NET *14 0.00208728
*CONN
*P mstream_o[109] O
*I *1931:Q O *D sky130_fd_sc_hd__dfrtp_4
*CAP
1 mstream_o[109] 0.000763839
2 *1931:Q 0.000763839
3 mstream_o[109] mstream_o[110] 6.88144e-05
4 mstream_o[109] *1821:A 0.000142157
5 mstream_o[108] mstream_o[109] 3.16528e-05
6 *1:12 mstream_o[109] 0.000316981
*RES
1 *1931:Q mstream_o[109] 27.8206 
*END

*D_NET *15 0.00247979
*CONN
*P mstream_o[10] O
*I *1832:Q O *D sky130_fd_sc_hd__dfrtp_4
*CAP
1 mstream_o[10] 0.00106596
2 *1832:Q 0.00106596
3 mstream_o[10] mstream_o[11] 0.000145878
4 mstream_o[10] mstream_o[9] 6.13815e-05
5 busy_o mstream_o[10] 0.000140608
*RES
1 *1832:Q mstream_o[10] 29.8955 
*END

*D_NET *16 0.00199567
*CONN
*P mstream_o[110] O
*I *1932:Q O *D sky130_fd_sc_hd__dfrtp_4
*CAP
1 mstream_o[110] 0.000881431
2 *1932:Q 0.000881431
3 mstream_o[110] mstream_o[111] 0.000163993
4 mstream_o[109] mstream_o[110] 6.88144e-05
*RES
1 *1932:Q mstream_o[110] 26.8068 
*END

*D_NET *17 0.00194892
*CONN
*P mstream_o[111] O
*I *1933:Q O *D sky130_fd_sc_hd__dfrtp_4
*CAP
1 mstream_o[111] 0.000857712
2 *1933:Q 0.000857712
3 mstream_o[111] mstream_o[112] 6.95031e-05
4 mstream_o[110] mstream_o[111] 0.000163993
*RES
1 *1933:Q mstream_o[111] 28.4456 
*END

*D_NET *18 0.00260263
*CONN
*P mstream_o[112] O
*I *1934:Q O *D sky130_fd_sc_hd__dfrtp_4
*CAP
1 mstream_o[112] 0.00116183
2 *1934:Q 0.00116183
3 mstream_o[112] mstream_o[113] 0.000163993
4 mstream_o[112] mstream_o[115] 2.27416e-05
5 mstream_o[112] *1937:CLK 2.27416e-05
6 mstream_o[111] mstream_o[112] 6.95031e-05
*RES
1 *1934:Q mstream_o[112] 28.4854 
*END

*D_NET *19 0.00291698
*CONN
*P mstream_o[113] O
*I *1935:Q O *D sky130_fd_sc_hd__dfrtp_4
*CAP
1 mstream_o[113] 0.00113858
2 *1935:Q 0.00113858
3 mstream_o[113] mstream_o[114] 0.000475822
4 mstream_o[113] *1935:RESET_B 0
5 mstream_o[112] mstream_o[113] 0.000163993
*RES
1 *1935:Q mstream_o[113] 22.053 
*END

*D_NET *20 0.00432881
*CONN
*P mstream_o[114] O
*I *1821:B I *D sky130_fd_sc_hd__or2_4
*I *1936:Q O *D sky130_fd_sc_hd__dfrtp_4
*CAP
1 mstream_o[114] 0.00132865
2 *1821:B 0.000180925
3 *1936:Q 7.56516e-05
4 *20:8 0.00158523
5 mstream_o[114] mstream_o[115] 3.16528e-05
6 mstream_o[114] *1935:RESET_B 0
7 mstream_o[114] *1937:CLK 0.000166541
8 mstream_o[114] *1937:D 0.000138144
9 mstream_o[114] *1937:RESET_B 0
10 *1821:B *1821:A 5.52302e-05
11 *1821:B *1937:CLK 5.79582e-06
12 *1821:B *408:157 0.000134748
13 *20:8 *1936:RESET_B 5.33005e-05
14 *20:8 *1937:RESET_B 9.71197e-05
15 mstream_o[113] mstream_o[114] 0.000475822
*RES
1 *1936:Q *20:8 15.1571 
2 *20:8 *1821:B 17.8 
3 *20:8 mstream_o[114] 15.6261 
*END

*D_NET *21 0.0015641
*CONN
*P mstream_o[115] O
*I *1937:Q O *D sky130_fd_sc_hd__dfrtp_4
*CAP
1 mstream_o[115] 0.000754855
2 *1937:Q 0.000754855
3 mstream_o[112] mstream_o[115] 2.27416e-05
4 mstream_o[114] mstream_o[115] 3.16528e-05
*RES
1 *1937:Q mstream_o[115] 25.3569 
*END

*D_NET *22 0.00195289
*CONN
*P mstream_o[11] O
*I *1833:Q O *D sky130_fd_sc_hd__dfrtp_4
*CAP
1 mstream_o[11] 0.000814959
2 *1833:Q 0.000814959
3 mstream_o[11] mstream_o[12] 6.13815e-05
4 busy_o mstream_o[11] 0.000115714
5 mstream_o[10] mstream_o[11] 0.000145878
*RES
1 *1833:Q mstream_o[11] 27.7485 
*END

*D_NET *23 0.0029974
*CONN
*P mstream_o[12] O
*I *1834:Q O *D sky130_fd_sc_hd__dfrtp_4
*CAP
1 mstream_o[12] 0.00137199
2 *1834:Q 0.00137199
3 mstream_o[12] mstream_o[13] 0.000149293
4 mstream_o[12] mstream_o[15] 0
5 mstream_o[12] *357:16 4.27493e-05
6 mstream_o[12] *401:139 0
7 mstream_o[12] *401:150 0
8 mstream_o[11] mstream_o[12] 6.13815e-05
*RES
1 *1834:Q mstream_o[12] 21.6429 
*END

*D_NET *24 0.00213996
*CONN
*P mstream_o[13] O
*I *1835:Q O *D sky130_fd_sc_hd__dfrtp_4
*CAP
1 mstream_o[13] 0.000787046
2 *1835:Q 0.000787046
3 mstream_o[13] mstream_o[14] 6.13815e-05
4 mstream_o[13] *418:DIODE 0.000141734
5 mstream_o[13] *358:6 9.77414e-05
6 busy_o mstream_o[13] 0.000115714
7 mstream_o[12] mstream_o[13] 0.000149293
*RES
1 *1835:Q mstream_o[13] 28.3021 
*END

*D_NET *25 0.00239802
*CONN
*P mstream_o[14] O
*I *1836:Q O *D sky130_fd_sc_hd__dfrtp_4
*CAP
1 mstream_o[14] 0.000987607
2 *1836:Q 0.000987607
3 mstream_o[14] mstream_o[15] 0.000145878
4 mstream_o[14] *1943:A 7.32272e-05
5 busy_o mstream_o[14] 0.000142315
6 mstream_o[13] mstream_o[14] 6.13815e-05
*RES
1 *1836:Q mstream_o[14] 30.324 
*END

*D_NET *26 0.00243309
*CONN
*P mstream_o[15] O
*I *1837:Q O *D sky130_fd_sc_hd__dfrtp_4
*CAP
1 mstream_o[15] 0.0010898
2 *1837:Q 0.0010898
3 mstream_o[15] mstream_o[16] 6.20702e-05
4 mstream_o[15] mstream_o[17] 0
5 mstream_o[12] mstream_o[15] 0
6 mstream_o[14] mstream_o[15] 0.000145878
7 *2:13 mstream_o[15] 4.5534e-05
*RES
1 *1837:Q mstream_o[15] 20.2469 
*END

*D_NET *27 0.00248511
*CONN
*P mstream_o[16] O
*I *1838:Q O *D sky130_fd_sc_hd__dfrtp_4
*CAP
1 mstream_o[16] 0.00106206
2 *1838:Q 0.00106206
3 mstream_o[16] mstream_o[17] 0.000145878
4 mstream_o[16] *1838:RESET_B 1.24368e-05
5 busy_o mstream_o[16] 0.000140608
6 mstream_o[15] mstream_o[16] 6.20702e-05
*RES
1 *1838:Q mstream_o[16] 29.8955 
*END

*D_NET *28 0.00269952
*CONN
*P mstream_o[17] O
*I *1839:Q O *D sky130_fd_sc_hd__dfrtp_4
*CAP
1 mstream_o[17] 0.0011758
2 *1839:Q 0.0011758
3 mstream_o[17] mstream_o[18] 6.20702e-05
4 mstream_o[17] *402:40 5.2542e-05
5 mstream_o[15] mstream_o[17] 0
6 mstream_o[16] mstream_o[17] 0.000145878
7 *2:13 mstream_o[17] 8.74238e-05
*RES
1 *1839:Q mstream_o[17] 21.7303 
*END

*D_NET *29 0.00248941
*CONN
*P mstream_o[18] O
*I *1840:Q O *D sky130_fd_sc_hd__dfrtp_4
*CAP
1 mstream_o[18] 0.0010674
2 *1840:Q 0.0010674
3 mstream_o[18] mstream_o[19] 0.000145878
4 mstream_o[18] *1840:RESET_B 6.05161e-06
5 busy_o mstream_o[18] 0.000140608
6 mstream_o[17] mstream_o[18] 6.20702e-05
*RES
1 *1840:Q mstream_o[18] 29.8955 
*END

*D_NET *30 0.00203595
*CONN
*P mstream_o[19] O
*I *1841:Q O *D sky130_fd_sc_hd__dfrtp_4
*CAP
1 mstream_o[19] 0.000856486
2 *1841:Q 0.000856486
3 mstream_o[19] mstream_o[20] 6.13815e-05
4 busy_o mstream_o[19] 0.000115714
5 mstream_o[18] mstream_o[19] 0.000145878
*RES
1 *1841:Q mstream_o[19] 28.5699 
*END

*D_NET *31 0.00219283
*CONN
*P mstream_o[1] O
*I *1823:Q O *D sky130_fd_sc_hd__dfrtp_4
*CAP
1 mstream_o[1] 0.000813369
2 *1823:Q 0.000813369
3 mstream_o[1] mstream_o[2] 6.13815e-05
4 mstream_o[1] *442:DIODE 0.000142157
5 mstream_o[1] *1823:RESET_B 0.00010096
6 busy_o mstream_o[1] 0.000115714
7 mstream_o[0] mstream_o[1] 0.000145878
*RES
1 *1823:Q mstream_o[1] 28.5699 
*END

*D_NET *32 0.00249201
*CONN
*P mstream_o[20] O
*I *1842:Q O *D sky130_fd_sc_hd__dfrtp_4
*CAP
1 mstream_o[20] 0.00106904
2 *1842:Q 0.00106904
3 mstream_o[20] mstream_o[21] 0.000145878
4 mstream_o[20] *1842:RESET_B 6.05161e-06
5 busy_o mstream_o[20] 0.000140608
6 mstream_o[19] mstream_o[20] 6.13815e-05
*RES
1 *1842:Q mstream_o[20] 29.8955 
*END

*D_NET *33 0.00203595
*CONN
*P mstream_o[21] O
*I *1843:Q O *D sky130_fd_sc_hd__dfrtp_4
*CAP
1 mstream_o[21] 0.000856486
2 *1843:Q 0.000856486
3 mstream_o[21] mstream_o[22] 6.13815e-05
4 busy_o mstream_o[21] 0.000115714
5 mstream_o[20] mstream_o[21] 0.000145878
*RES
1 *1843:Q mstream_o[21] 28.5699 
*END

*D_NET *34 0.0029044
*CONN
*P mstream_o[22] O
*I *1844:Q O *D sky130_fd_sc_hd__dfrtp_4
*CAP
1 mstream_o[22] 0.00134686
2 *1844:Q 0.00134686
3 mstream_o[22] mstream_o[23] 0.000149293
4 mstream_o[22] mstream_o[25] 0
5 mstream_o[22] *1850:RESET_B 0
6 mstream_o[21] mstream_o[22] 6.13815e-05
7 *2:13 mstream_o[22] 0
*RES
1 *1844:Q mstream_o[22] 21.6429 
*END

*D_NET *35 0.00200499
*CONN
*P mstream_o[23] O
*I *1845:Q O *D sky130_fd_sc_hd__dfrtp_4
*CAP
1 mstream_o[23] 0.000839302
2 *1845:Q 0.000839302
3 mstream_o[23] mstream_o[24] 6.13815e-05
4 busy_o mstream_o[23] 0.000115714
5 mstream_o[22] mstream_o[23] 0.000149293
*RES
1 *1845:Q mstream_o[23] 28.1592 
*END

*D_NET *36 0.00247949
*CONN
*P mstream_o[24] O
*I *1846:Q O *D sky130_fd_sc_hd__dfrtp_4
*CAP
1 mstream_o[24] 0.00106581
2 *1846:Q 0.00106581
3 mstream_o[24] mstream_o[25] 0.000145878
4 busy_o mstream_o[24] 0.000140608
5 mstream_o[23] mstream_o[24] 6.13815e-05
*RES
1 *1846:Q mstream_o[24] 29.8955 
*END

*D_NET *37 0.00234993
*CONN
*P mstream_o[25] O
*I *1847:Q O *D sky130_fd_sc_hd__dfrtp_4
*CAP
1 mstream_o[25] 0.00106042
2 *1847:Q 0.00106042
3 mstream_o[25] mstream_o[26] 6.20702e-05
4 mstream_o[25] mstream_o[27] 0
5 mstream_o[25] *1850:RESET_B 0
6 mstream_o[22] mstream_o[25] 0
7 mstream_o[24] mstream_o[25] 0.000145878
8 *2:13 mstream_o[25] 2.11419e-05
*RES
1 *1847:Q mstream_o[25] 19.9433 
*END

*D_NET *38 0.00242494
*CONN
*P mstream_o[26] O
*I *1848:Q O *D sky130_fd_sc_hd__dfrtp_4
*CAP
1 mstream_o[26] 0.00103819
2 *1848:Q 0.00103819
3 mstream_o[26] mstream_o[27] 0.000145878
4 busy_o mstream_o[26] 0.000140608
5 mstream_o[25] mstream_o[26] 6.20702e-05
*RES
1 *1848:Q mstream_o[26] 29.8955 
*END

*D_NET *39 0.00275117
*CONN
*P mstream_o[27] O
*I *1849:Q O *D sky130_fd_sc_hd__dfrtp_4
*CAP
1 mstream_o[27] 0.00124199
2 *1849:Q 0.00124199
3 mstream_o[27] mstream_o[28] 6.20702e-05
4 mstream_o[27] *1850:RESET_B 0
5 mstream_o[25] mstream_o[27] 0
6 mstream_o[26] mstream_o[27] 0.000145878
7 *2:13 mstream_o[27] 5.92326e-05
*RES
1 *1849:Q mstream_o[27] 21.8023 
*END

*D_NET *40 0.00243399
*CONN
*P mstream_o[28] O
*I *1850:Q O *D sky130_fd_sc_hd__dfrtp_4
*CAP
1 mstream_o[28] 0.00104272
2 *1850:Q 0.00104272
3 mstream_o[28] mstream_o[29] 0.000145878
4 busy_o mstream_o[28] 0.000140608
5 mstream_o[27] mstream_o[28] 6.20702e-05
*RES
1 *1850:Q mstream_o[28] 29.8955 
*END

*D_NET *41 0.00225443
*CONN
*P mstream_o[29] O
*I *1851:Q O *D sky130_fd_sc_hd__dfrtp_4
*CAP
1 mstream_o[29] 0.000841504
2 *1851:Q 0.000841504
3 mstream_o[29] mstream_o[30] 6.13815e-05
4 mstream_o[29] *445:DIODE 5.03772e-05
5 mstream_o[29] *1851:RESET_B 0.00014285
6 mstream_o[29] *1990:A 5.52238e-05
7 busy_o mstream_o[29] 0.000115714
8 mstream_o[28] mstream_o[29] 0.000145878
*RES
1 *1851:Q mstream_o[29] 28.9806 
*END

*D_NET *42 0.00292434
*CONN
*P mstream_o[2] O
*I *1824:Q O *D sky130_fd_sc_hd__dfrtp_4
*CAP
1 mstream_o[2] 0.00135683
2 *1824:Q 0.00135683
3 mstream_o[2] mstream_o[3] 0.000149293
4 mstream_o[2] *1826:RESET_B 0
5 mstream_o[2] *401:38 0
6 mstream_o[1] mstream_o[2] 6.13815e-05
7 *2:13 mstream_o[2] 0
*RES
1 *1824:Q mstream_o[2] 21.6429 
*END

*D_NET *43 0.00280336
*CONN
*P mstream_o[30] O
*I *1852:Q O *D sky130_fd_sc_hd__dfrtp_4
*CAP
1 mstream_o[30] 0.00130054
2 *1852:Q 0.00130054
3 mstream_o[30] mstream_o[31] 0.000131178
4 mstream_o[30] mstream_o[32] 9.71378e-06
5 mstream_o[29] mstream_o[30] 6.13815e-05
6 *2:13 mstream_o[30] 0
*RES
1 *1852:Q mstream_o[30] 21.9465 
*END

*D_NET *44 0.000791895
*CONN
*P mstream_o[31] O
*I *1853:Q O *D sky130_fd_sc_hd__dfrtp_4
*CAP
1 mstream_o[31] 0.000207317
2 *1853:Q 0.000207317
3 mstream_o[31] mstream_o[32] 0.000183337
4 busy_o mstream_o[31] 6.27457e-05
5 mstream_o[30] mstream_o[31] 0.000131178
*RES
1 *1853:Q mstream_o[31] 19.3371 
*END

*D_NET *45 0.00233247
*CONN
*P mstream_o[32] O
*I *1854:Q O *D sky130_fd_sc_hd__dfrtp_4
*CAP
1 mstream_o[32] 0.00104339
2 *1854:Q 0.00104339
3 mstream_o[32] mstream_o[33] 3.16528e-05
4 busy_o mstream_o[32] 2.09826e-05
5 mstream_o[30] mstream_o[32] 9.71378e-06
6 mstream_o[31] mstream_o[32] 0.000183337
*RES
1 *1854:Q mstream_o[32] 28.4841 
*END

*D_NET *46 0.00199782
*CONN
*P mstream_o[33] O
*I *1855:Q O *D sky130_fd_sc_hd__dfrtp_4
*CAP
1 mstream_o[33] 0.000894537
2 *1855:Q 0.000894537
3 mstream_o[33] mstream_o[34] 6.13815e-05
4 busy_o mstream_o[33] 0.000115714
5 mstream_o[32] mstream_o[33] 3.16528e-05
*RES
1 *1855:Q mstream_o[33] 28.1592 
*END

*D_NET *47 0.00249581
*CONN
*P mstream_o[34] O
*I *1856:Q O *D sky130_fd_sc_hd__dfrtp_4
*CAP
1 mstream_o[34] 0.00107397
2 *1856:Q 0.00107397
3 mstream_o[34] mstream_o[35] 0.000145878
4 busy_o mstream_o[34] 0.000140608
5 mstream_o[33] mstream_o[34] 6.13815e-05
*RES
1 *1856:Q mstream_o[34] 29.8955 
*END

*D_NET *48 0.00270216
*CONN
*P mstream_o[35] O
*I *1857:Q O *D sky130_fd_sc_hd__dfrtp_4
*CAP
1 mstream_o[35] 0.00116453
2 *1857:Q 0.00116453
3 mstream_o[35] mstream_o[36] 6.20702e-05
4 mstream_o[35] *404:80 0
5 mstream_o[35] *404:92 0
6 mstream_o[34] mstream_o[35] 0.000145878
7 *2:13 mstream_o[35] 0.000165152
*RES
1 *1857:Q mstream_o[35] 21.6582 
*END

*D_NET *49 0.00247691
*CONN
*P mstream_o[36] O
*I *1858:Q O *D sky130_fd_sc_hd__dfrtp_4
*CAP
1 mstream_o[36] 0.00106418
2 *1858:Q 0.00106418
3 mstream_o[36] mstream_o[37] 0.000145878
4 busy_o mstream_o[36] 0.000140608
5 mstream_o[35] mstream_o[36] 6.20702e-05
*RES
1 *1858:Q mstream_o[36] 29.8955 
*END

*D_NET *50 0.00206708
*CONN
*P mstream_o[37] O
*I *1859:Q O *D sky130_fd_sc_hd__dfrtp_4
*CAP
1 mstream_o[37] 0.000872054
2 *1859:Q 0.000872054
3 mstream_o[37] mstream_o[38] 6.13815e-05
4 busy_o mstream_o[37] 0.000115714
5 mstream_o[36] mstream_o[37] 0.000145878
*RES
1 *1859:Q mstream_o[37] 28.5699 
*END

*D_NET *51 0.00247949
*CONN
*P mstream_o[38] O
*I *1860:Q O *D sky130_fd_sc_hd__dfrtp_4
*CAP
1 mstream_o[38] 0.00106581
2 *1860:Q 0.00106581
3 mstream_o[38] mstream_o[39] 0.000145878
4 busy_o mstream_o[38] 0.000140608
5 mstream_o[37] mstream_o[38] 6.13815e-05
*RES
1 *1860:Q mstream_o[38] 29.8955 
*END

*D_NET *52 0.00206708
*CONN
*P mstream_o[39] O
*I *1861:Q O *D sky130_fd_sc_hd__dfrtp_4
*CAP
1 mstream_o[39] 0.000872054
2 *1861:Q 0.000872054
3 mstream_o[39] mstream_o[40] 6.13815e-05
4 busy_o mstream_o[39] 0.000115714
5 mstream_o[38] mstream_o[39] 0.000145878
*RES
1 *1861:Q mstream_o[39] 28.5699 
*END

*D_NET *53 0.00205459
*CONN
*P mstream_o[3] O
*I *1825:Q O *D sky130_fd_sc_hd__dfrtp_4
*CAP
1 mstream_o[3] 0.000790944
2 *1825:Q 0.000790944
3 mstream_o[3] mstream_o[4] 0.0002077
4 busy_o mstream_o[3] 0.000115714
5 mstream_o[2] mstream_o[3] 0.000149293
*RES
1 *1825:Q mstream_o[3] 28.1592 
*END

*D_NET *54 0.00289809
*CONN
*P mstream_o[40] O
*I *1862:Q O *D sky130_fd_sc_hd__dfrtp_4
*CAP
1 mstream_o[40] 0.00134371
2 *1862:Q 0.00134371
3 mstream_o[40] mstream_o[41] 0.000149293
4 mstream_o[40] *404:130 0
5 mstream_o[40] *404:137 0
6 mstream_o[39] mstream_o[40] 6.13815e-05
7 *2:13 mstream_o[40] 0
*RES
1 *1862:Q mstream_o[40] 21.6429 
*END

*D_NET *55 0.00202214
*CONN
*P mstream_o[41] O
*I *1863:Q O *D sky130_fd_sc_hd__dfrtp_4
*CAP
1 mstream_o[41] 0.000774718
2 *1863:Q 0.000774718
3 mstream_o[41] mstream_o[42] 0.0002077
4 busy_o mstream_o[41] 0.000115714
5 mstream_o[40] mstream_o[41] 0.000149293
*RES
1 *1863:Q mstream_o[41] 27.7485 
*END

*D_NET *56 0.00228399
*CONN
*P mstream_o[42] O
*I *1864:Q O *D sky130_fd_sc_hd__dfrtp_4
*CAP
1 mstream_o[42] 0.00101183
2 *1864:Q 0.00101183
3 mstream_o[42] mstream_o[43] 3.16528e-05
4 busy_o mstream_o[42] 2.09826e-05
5 mstream_o[41] mstream_o[42] 0.0002077
*RES
1 *1864:Q mstream_o[42] 28.4841 
*END

*D_NET *57 0.00205813
*CONN
*P mstream_o[43] O
*I *1865:Q O *D sky130_fd_sc_hd__dfrtp_4
*CAP
1 mstream_o[43] 0.000924691
2 *1865:Q 0.000924691
3 mstream_o[43] mstream_o[44] 6.13815e-05
4 busy_o mstream_o[43] 0.000115714
5 mstream_o[42] mstream_o[43] 3.16528e-05
*RES
1 *1865:Q mstream_o[43] 28.5699 
*END

*D_NET *58 0.00247983
*CONN
*P mstream_o[44] O
*I *1866:Q O *D sky130_fd_sc_hd__dfrtp_4
*CAP
1 mstream_o[44] 0.00106598
2 *1866:Q 0.00106598
3 mstream_o[44] mstream_o[45] 0.000145878
4 busy_o mstream_o[44] 0.000140608
5 mstream_o[43] mstream_o[44] 6.13815e-05
*RES
1 *1866:Q mstream_o[44] 29.8955 
*END

*D_NET *59 0.00282585
*CONN
*P mstream_o[45] O
*I *1867:Q O *D sky130_fd_sc_hd__dfrtp_4
*CAP
1 mstream_o[45] 0.00126524
2 *1867:Q 0.00126524
3 mstream_o[45] mstream_o[46] 6.20702e-05
4 mstream_o[45] *1879:RESET_B 0
5 mstream_o[44] mstream_o[45] 0.000145878
6 *2:13 mstream_o[45] 8.74238e-05
*RES
1 *1867:Q mstream_o[45] 21.7303 
*END

*D_NET *60 0.00247918
*CONN
*P mstream_o[46] O
*I *1868:Q O *D sky130_fd_sc_hd__dfrtp_4
*CAP
1 mstream_o[46] 0.000987706
2 *1868:Q 0.000987706
3 mstream_o[46] mstream_o[47] 0.000145878
4 mstream_o[46] *420:DIODE 2.23592e-05
5 mstream_o[46] *1946:A 5.33334e-05
6 mstream_o[46] *360:12 8.02324e-05
7 busy_o mstream_o[46] 0.000139893
8 mstream_o[45] mstream_o[46] 6.20702e-05
*RES
1 *1868:Q mstream_o[46] 30.324 
*END

*D_NET *61 0.00218629
*CONN
*P mstream_o[47] O
*I *1869:Q O *D sky130_fd_sc_hd__dfrtp_4
*CAP
1 mstream_o[47] 0.000886339
2 *1869:Q 0.000886339
3 mstream_o[47] mstream_o[48] 6.13815e-05
4 mstream_o[47] *419:DIODE 3.56005e-05
5 mstream_o[47] *359:8 5.33334e-05
6 busy_o mstream_o[47] 0.000117421
7 mstream_o[46] mstream_o[47] 0.000145878
*RES
1 *1869:Q mstream_o[47] 28.8913 
*END

*D_NET *62 0.00247947
*CONN
*P mstream_o[48] O
*I *1870:Q O *D sky130_fd_sc_hd__dfrtp_4
*CAP
1 mstream_o[48] 0.0010658
2 *1870:Q 0.0010658
3 mstream_o[48] mstream_o[49] 0.000145878
4 busy_o mstream_o[48] 0.000140608
5 mstream_o[47] mstream_o[48] 6.13815e-05
*RES
1 *1870:Q mstream_o[48] 29.8955 
*END

*D_NET *63 0.00193819
*CONN
*P mstream_o[49] O
*I *1871:Q O *D sky130_fd_sc_hd__dfrtp_4
*CAP
1 mstream_o[49] 0.000807606
2 *1871:Q 0.000807606
3 mstream_o[49] mstream_o[50] 6.13815e-05
4 busy_o mstream_o[49] 0.000115714
5 mstream_o[48] mstream_o[49] 0.000145878
*RES
1 *1871:Q mstream_o[49] 27.7485 
*END

*D_NET *64 0.0022826
*CONN
*P mstream_o[4] O
*I *1826:Q O *D sky130_fd_sc_hd__dfrtp_4
*CAP
1 mstream_o[4] 0.000994836
2 *1826:Q 0.000994836
3 mstream_o[4] mstream_o[5] 3.16528e-05
4 mstream_o[4] *357:20 3.13687e-05
5 busy_o mstream_o[4] 2.22043e-05
6 mstream_o[3] mstream_o[4] 0.0002077
*RES
1 *1826:Q mstream_o[4] 28.9127 
*END

*D_NET *65 0.00288279
*CONN
*P mstream_o[50] O
*I *1872:Q O *D sky130_fd_sc_hd__dfrtp_4
*CAP
1 mstream_o[50] 0.00133606
2 *1872:Q 0.00133606
3 mstream_o[50] mstream_o[51] 0.000149293
4 mstream_o[50] mstream_o[53] 0
5 mstream_o[50] *1879:RESET_B 0
6 mstream_o[49] mstream_o[50] 6.13815e-05
7 *2:13 mstream_o[50] 0
*RES
1 *1872:Q mstream_o[50] 21.6429 
*END

*D_NET *66 0.00195613
*CONN
*P mstream_o[51] O
*I *1873:Q O *D sky130_fd_sc_hd__dfrtp_4
*CAP
1 mstream_o[51] 0.000814872
2 *1873:Q 0.000814872
3 mstream_o[51] mstream_o[52] 6.13815e-05
4 busy_o mstream_o[51] 0.000115714
5 mstream_o[50] mstream_o[51] 0.000149293
*RES
1 *1873:Q mstream_o[51] 27.7485 
*END

*D_NET *67 0.00247947
*CONN
*P mstream_o[52] O
*I *1874:Q O *D sky130_fd_sc_hd__dfrtp_4
*CAP
1 mstream_o[52] 0.0010658
2 *1874:Q 0.0010658
3 mstream_o[52] mstream_o[53] 0.000145878
4 busy_o mstream_o[52] 0.000140608
5 mstream_o[51] mstream_o[52] 6.13815e-05
*RES
1 *1874:Q mstream_o[52] 29.8955 
*END

*D_NET *68 0.00247594
*CONN
*P mstream_o[53] O
*I *1875:Q O *D sky130_fd_sc_hd__dfrtp_4
*CAP
1 mstream_o[53] 0.00112631
2 *1875:Q 0.00112631
3 mstream_o[53] mstream_o[54] 6.20702e-05
4 mstream_o[53] mstream_o[55] 0
5 mstream_o[53] *1879:RESET_B 0
6 mstream_o[50] mstream_o[53] 0
7 mstream_o[52] mstream_o[53] 0.000145878
8 *2:13 mstream_o[53] 1.53815e-05
*RES
1 *1875:Q mstream_o[53] 20.391 
*END

*D_NET *69 0.00242494
*CONN
*P mstream_o[54] O
*I *1876:Q O *D sky130_fd_sc_hd__dfrtp_4
*CAP
1 mstream_o[54] 0.00103819
2 *1876:Q 0.00103819
3 mstream_o[54] mstream_o[55] 0.000145878
4 busy_o mstream_o[54] 0.000140608
5 mstream_o[53] mstream_o[54] 6.20702e-05
*RES
1 *1876:Q mstream_o[54] 29.8955 
*END

*D_NET *70 0.00279277
*CONN
*P mstream_o[55] O
*I *1877:Q O *D sky130_fd_sc_hd__dfrtp_4
*CAP
1 mstream_o[55] 0.00129241
2 *1877:Q 0.00129241
3 mstream_o[55] mstream_o[56] 6.20702e-05
4 mstream_o[55] *1879:RESET_B 0
5 mstream_o[53] mstream_o[55] 0
6 mstream_o[54] mstream_o[55] 0.000145878
7 *2:13 mstream_o[55] 0
*RES
1 *1877:Q mstream_o[55] 21.8744 
*END

*D_NET *71 0.00243399
*CONN
*P mstream_o[56] O
*I *1878:Q O *D sky130_fd_sc_hd__dfrtp_4
*CAP
1 mstream_o[56] 0.00104272
2 *1878:Q 0.00104272
3 mstream_o[56] mstream_o[57] 0.000145878
4 busy_o mstream_o[56] 0.000140608
5 mstream_o[55] mstream_o[56] 6.20702e-05
*RES
1 *1878:Q mstream_o[56] 29.8955 
*END

*D_NET *72 0.00199185
*CONN
*P mstream_o[57] O
*I *1879:Q O *D sky130_fd_sc_hd__dfrtp_4
*CAP
1 mstream_o[57] 0.000772902
2 *1879:Q 0.000772902
3 mstream_o[57] mstream_o[58] 6.13815e-05
4 mstream_o[57] *356:8 0.000123068
5 busy_o mstream_o[57] 0.000115714
6 mstream_o[56] mstream_o[57] 0.000145878
*RES
1 *1879:Q mstream_o[57] 27.7485 
*END

*D_NET *73 0.00254225
*CONN
*P mstream_o[58] O
*I *1880:Q O *D sky130_fd_sc_hd__dfrtp_4
*CAP
1 mstream_o[58] 0.00097069
2 *1880:Q 0.00097069
3 mstream_o[58] mstream_o[59] 0.000145878
4 mstream_o[58] *237:10 6.78793e-05
5 busy_o mstream_o[58] 0.000140608
6 mstream_o[57] mstream_o[58] 6.13815e-05
7 *1941:A mstream_o[58] 0.000185118
*RES
1 *1880:Q mstream_o[58] 29.8955 
*END

*D_NET *74 0.00228723
*CONN
*P mstream_o[59] O
*I *1881:Q O *D sky130_fd_sc_hd__dfrtp_4
*CAP
1 mstream_o[59] 0.00081135
2 *1881:Q 0.00081135
3 mstream_o[59] mstream_o[60] 6.13815e-05
4 mstream_o[59] *447:DIODE 0.000141554
5 mstream_o[59] *406:6 0.00010096
6 mstream_o[59] *410:87 9.90431e-05
7 busy_o mstream_o[59] 0.000115714
8 mstream_o[58] mstream_o[59] 0.000145878
*RES
1 *1881:Q mstream_o[59] 28.9806 
*END

*D_NET *75 0.00192173
*CONN
*P mstream_o[5] O
*I *1827:Q O *D sky130_fd_sc_hd__dfrtp_4
*CAP
1 mstream_o[5] 0.00085649
2 *1827:Q 0.00085649
3 mstream_o[5] mstream_o[6] 6.13815e-05
4 busy_o mstream_o[5] 0.000115714
5 mstream_o[4] mstream_o[5] 3.16528e-05
*RES
1 *1827:Q mstream_o[5] 27.7485 
*END

*D_NET *76 0.00295465
*CONN
*P mstream_o[60] O
*I *1882:Q O *D sky130_fd_sc_hd__dfrtp_4
*CAP
1 mstream_o[60] 0.00137199
2 *1882:Q 0.00137199
3 mstream_o[60] mstream_o[61] 0.000149293
4 mstream_o[60] *406:23 0
5 mstream_o[60] *406:39 0
6 mstream_o[60] *410:101 0
7 mstream_o[59] mstream_o[60] 6.13815e-05
*RES
1 *1882:Q mstream_o[60] 21.6429 
*END

*D_NET *77 0.00194087
*CONN
*P mstream_o[61] O
*I *1883:Q O *D sky130_fd_sc_hd__dfrtp_4
*CAP
1 mstream_o[61] 0.000807242
2 *1883:Q 0.000807242
3 mstream_o[61] mstream_o[62] 6.13815e-05
4 busy_o mstream_o[61] 0.000115714
5 mstream_o[60] mstream_o[61] 0.000149293
*RES
1 *1883:Q mstream_o[61] 28.1592 
*END

*D_NET *78 0.00244669
*CONN
*P mstream_o[62] O
*I *1884:Q O *D sky130_fd_sc_hd__dfrtp_4
*CAP
1 mstream_o[62] 0.00105676
2 *1884:Q 0.00105676
3 mstream_o[62] mstream_o[63] 0.000131178
4 mstream_o[62] mstream_o[64] 0
5 busy_o mstream_o[62] 0.000140608
6 mstream_o[61] mstream_o[62] 6.13815e-05
*RES
1 *1884:Q mstream_o[62] 29.8955 
*END

*D_NET *79 0.000648102
*CONN
*P mstream_o[63] O
*I *1885:Q O *D sky130_fd_sc_hd__dfrtp_4
*CAP
1 mstream_o[63] 0.000211287
2 *1885:Q 0.000211287
3 mstream_o[63] mstream_o[64] 5.39485e-05
4 busy_o mstream_o[63] 4.04012e-05
5 mstream_o[62] mstream_o[63] 0.000131178
*RES
1 *1885:Q mstream_o[63] 18.73 
*END

*D_NET *80 0.00327621
*CONN
*P mstream_o[64] O
*I *1886:Q O *D sky130_fd_sc_hd__dfrtp_4
*CAP
1 mstream_o[64] 0.00123156
2 *1886:Q 0.00123156
3 mstream_o[64] mstream_o[65] 0.000145878
4 mstream_o[64] *1885:RESET_B 0.000473885
5 busy_o mstream_o[64] 0.000139386
6 mstream_o[62] mstream_o[64] 0
7 mstream_o[63] mstream_o[64] 5.39485e-05
*RES
1 *1886:Q mstream_o[64] 30.7526 
*END

*D_NET *81 0.00203823
*CONN
*P mstream_o[65] O
*I *1887:Q O *D sky130_fd_sc_hd__dfrtp_4
*CAP
1 mstream_o[65] 0.000850107
2 *1887:Q 0.000850107
3 mstream_o[65] mstream_o[66] 6.13815e-05
4 mstream_o[65] *361:18 1.33343e-05
5 busy_o mstream_o[65] 0.000117421
6 mstream_o[64] mstream_o[65] 0.000145878
*RES
1 *1887:Q mstream_o[65] 28.5878 
*END

*D_NET *82 0.00246345
*CONN
*P mstream_o[66] O
*I *1888:Q O *D sky130_fd_sc_hd__dfrtp_4
*CAP
1 mstream_o[66] 0.00105779
2 *1888:Q 0.00105779
3 mstream_o[66] mstream_o[67] 0.000145878
4 busy_o mstream_o[66] 0.000140608
5 mstream_o[65] mstream_o[66] 6.13815e-05
*RES
1 *1888:Q mstream_o[66] 29.8955 
*END

*D_NET *83 0.001996
*CONN
*P mstream_o[67] O
*I *1889:Q O *D sky130_fd_sc_hd__dfrtp_4
*CAP
1 mstream_o[67] 0.000836514
2 *1889:Q 0.000836514
3 mstream_o[67] mstream_o[68] 6.13815e-05
4 busy_o mstream_o[67] 0.000115714
5 mstream_o[66] mstream_o[67] 0.000145878
*RES
1 *1889:Q mstream_o[67] 28.1592 
*END

*D_NET *84 0.00301885
*CONN
*P mstream_o[68] O
*I *1890:Q O *D sky130_fd_sc_hd__dfrtp_4
*CAP
1 mstream_o[68] 0.00140409
2 *1890:Q 0.00140409
3 mstream_o[68] mstream_o[69] 0.000149293
4 mstream_o[68] *406:131 0
5 mstream_o[68] *410:101 0
6 mstream_o[67] mstream_o[68] 6.13815e-05
*RES
1 *1890:Q mstream_o[68] 21.6429 
*END

*D_NET *85 0.00227292
*CONN
*P mstream_o[69] O
*I *1891:Q O *D sky130_fd_sc_hd__dfrtp_4
*CAP
1 mstream_o[69] 0.000778549
2 *1891:Q 0.000778549
3 mstream_o[69] mstream_o[70] 0.0002077
4 mstream_o[69] *422:DIODE 0.000142157
5 mstream_o[69] *362:8 0.00010096
6 busy_o mstream_o[69] 0.000115714
7 mstream_o[68] mstream_o[69] 0.000149293
*RES
1 *1891:Q mstream_o[69] 29.1235 
*END

*D_NET *86 0.00247979
*CONN
*P mstream_o[6] O
*I *1828:Q O *D sky130_fd_sc_hd__dfrtp_4
*CAP
1 mstream_o[6] 0.00106596
2 *1828:Q 0.00106596
3 mstream_o[6] mstream_o[7] 0.000145878
4 busy_o mstream_o[6] 0.000140608
5 mstream_o[5] mstream_o[6] 6.13815e-05
*RES
1 *1828:Q mstream_o[6] 29.8955 
*END

*D_NET *87 0.00225167
*CONN
*P mstream_o[70] O
*I *1892:Q O *D sky130_fd_sc_hd__dfrtp_4
*CAP
1 mstream_o[70] 0.000995665
2 *1892:Q 0.000995665
3 mstream_o[70] mstream_o[71] 3.16528e-05
4 busy_o mstream_o[70] 2.09826e-05
5 mstream_o[69] mstream_o[70] 0.0002077
*RES
1 *1892:Q mstream_o[70] 28.4841 
*END

*D_NET *88 0.00197615
*CONN
*P mstream_o[71] O
*I *1893:Q O *D sky130_fd_sc_hd__dfrtp_4
*CAP
1 mstream_o[71] 0.0008837
2 *1893:Q 0.0008837
3 mstream_o[71] mstream_o[72] 6.13815e-05
4 busy_o mstream_o[71] 0.000115714
5 mstream_o[70] mstream_o[71] 3.16528e-05
*RES
1 *1893:Q mstream_o[71] 28.1592 
*END

*D_NET *89 0.00245755
*CONN
*P mstream_o[72] O
*I *1894:Q O *D sky130_fd_sc_hd__dfrtp_4
*CAP
1 mstream_o[72] 0.00105484
2 *1894:Q 0.00105484
3 mstream_o[72] mstream_o[73] 0.000145878
4 busy_o mstream_o[72] 0.000140608
5 mstream_o[71] mstream_o[72] 6.13815e-05
*RES
1 *1894:Q mstream_o[72] 29.8955 
*END

*D_NET *90 0.00275175
*CONN
*P mstream_o[73] O
*I *1895:Q O *D sky130_fd_sc_hd__dfrtp_4
*CAP
1 mstream_o[73] 0.00122983
2 *1895:Q 0.00122983
3 mstream_o[73] mstream_o[74] 6.20702e-05
4 mstream_o[73] *406:180 8.41429e-05
5 mstream_o[73] *410:121 0
6 mstream_o[72] mstream_o[73] 0.000145878
*RES
1 *1895:Q mstream_o[73] 21.8023 
*END

*D_NET *91 0.00245495
*CONN
*P mstream_o[74] O
*I *1896:Q O *D sky130_fd_sc_hd__dfrtp_4
*CAP
1 mstream_o[74] 0.0010532
2 *1896:Q 0.0010532
3 mstream_o[74] mstream_o[75] 0.000145878
4 busy_o mstream_o[74] 0.000140608
5 mstream_o[73] mstream_o[74] 6.20702e-05
*RES
1 *1896:Q mstream_o[74] 29.8955 
*END

*D_NET *92 0.00195408
*CONN
*P mstream_o[75] O
*I *1897:Q O *D sky130_fd_sc_hd__dfrtp_4
*CAP
1 mstream_o[75] 0.000815554
2 *1897:Q 0.000815554
3 mstream_o[75] mstream_o[76] 6.13815e-05
4 busy_o mstream_o[75] 0.000115714
5 mstream_o[74] mstream_o[75] 0.000145878
*RES
1 *1897:Q mstream_o[75] 28.1592 
*END

*D_NET *93 0.00245755
*CONN
*P mstream_o[76] O
*I *1898:Q O *D sky130_fd_sc_hd__dfrtp_4
*CAP
1 mstream_o[76] 0.00105484
2 *1898:Q 0.00105484
3 mstream_o[76] mstream_o[77] 0.000145878
4 busy_o mstream_o[76] 0.000140608
5 mstream_o[75] mstream_o[76] 6.13815e-05
*RES
1 *1898:Q mstream_o[76] 29.8955 
*END

*D_NET *94 0.00200296
*CONN
*P mstream_o[77] O
*I *1899:Q O *D sky130_fd_sc_hd__dfrtp_4
*CAP
1 mstream_o[77] 0.000839994
2 *1899:Q 0.000839994
3 mstream_o[77] mstream_o[78] 6.13815e-05
4 busy_o mstream_o[77] 0.000115714
5 mstream_o[76] mstream_o[77] 0.000145878
*RES
1 *1899:Q mstream_o[77] 28.5699 
*END

*D_NET *95 0.0029713
*CONN
*P mstream_o[78] O
*I *1900:Q O *D sky130_fd_sc_hd__dfrtp_4
*CAP
1 mstream_o[78] 0.00135859
2 *1900:Q 0.00135859
3 mstream_o[78] mstream_o[79] 0.000149293
4 mstream_o[78] *406:180 4.34467e-05
5 mstream_o[78] *410:121 0
6 mstream_o[77] mstream_o[78] 6.13815e-05
*RES
1 *1900:Q mstream_o[78] 21.6429 
*END

*D_NET *96 0.00206977
*CONN
*P mstream_o[79] O
*I *1901:Q O *D sky130_fd_sc_hd__dfrtp_4
*CAP
1 mstream_o[79] 0.00087169
2 *1901:Q 0.00087169
3 mstream_o[79] mstream_o[80] 6.13815e-05
4 busy_o mstream_o[79] 0.000115714
5 mstream_o[78] mstream_o[79] 0.000149293
*RES
1 *1901:Q mstream_o[79] 28.9806 
*END

*D_NET *97 0.0027191
*CONN
*P mstream_o[7] O
*I *1829:Q O *D sky130_fd_sc_hd__dfrtp_4
*CAP
1 mstream_o[7] 0.00116639
2 *1829:Q 0.00116639
3 mstream_o[7] mstream_o[8] 6.20702e-05
4 mstream_o[7] *357:16 9.09514e-05
5 mstream_o[6] mstream_o[7] 0.000145878
6 *2:13 mstream_o[7] 8.74238e-05
*RES
1 *1829:Q mstream_o[7] 21.7303 
*END

*D_NET *98 0.00244712
*CONN
*P mstream_o[80] O
*I *1902:Q O *D sky130_fd_sc_hd__dfrtp_4
*CAP
1 mstream_o[80] 0.00104963
2 *1902:Q 0.00104963
3 mstream_o[80] mstream_o[81] 0.000145878
4 busy_o mstream_o[80] 0.000140608
5 mstream_o[79] mstream_o[80] 6.13815e-05
*RES
1 *1902:Q mstream_o[80] 29.8955 
*END

*D_NET *99 0.00198522
*CONN
*P mstream_o[81] O
*I *1903:Q O *D sky130_fd_sc_hd__dfrtp_4
*CAP
1 mstream_o[81] 0.000831122
2 *1903:Q 0.000831122
3 mstream_o[81] mstream_o[82] 6.13815e-05
4 busy_o mstream_o[81] 0.000115714
5 mstream_o[80] mstream_o[81] 0.000145878
*RES
1 *1903:Q mstream_o[81] 28.1592 
*END

*D_NET *100 0.00240426
*CONN
*P mstream_o[82] O
*I *1904:Q O *D sky130_fd_sc_hd__dfrtp_4
*CAP
1 mstream_o[82] 0.0010282
2 *1904:Q 0.0010282
3 mstream_o[82] mstream_o[83] 0.000145878
4 busy_o mstream_o[82] 0.000140608
5 mstream_o[81] mstream_o[82] 6.13815e-05
*RES
1 *1904:Q mstream_o[82] 29.8955 
*END

*D_NET *101 0.00266466
*CONN
*P mstream_o[83] O
*I *1905:Q O *D sky130_fd_sc_hd__dfrtp_4
*CAP
1 mstream_o[83] 0.00122836
2 *1905:Q 0.00122836
3 mstream_o[83] mstream_o[84] 6.20702e-05
4 mstream_o[83] *406:182 0
5 mstream_o[83] *410:121 0
6 mstream_o[82] mstream_o[83] 0.000145878
*RES
1 *1905:Q mstream_o[83] 21.7303 
*END

*D_NET *102 0.00240167
*CONN
*P mstream_o[84] O
*I *1906:Q O *D sky130_fd_sc_hd__dfrtp_4
*CAP
1 mstream_o[84] 0.00102656
2 *1906:Q 0.00102656
3 mstream_o[84] mstream_o[85] 0.000145878
4 busy_o mstream_o[84] 0.000140608
5 mstream_o[83] mstream_o[84] 6.20702e-05
*RES
1 *1906:Q mstream_o[84] 29.8955 
*END

*D_NET *103 0.00198522
*CONN
*P mstream_o[85] O
*I *1907:Q O *D sky130_fd_sc_hd__dfrtp_4
*CAP
1 mstream_o[85] 0.000831122
2 *1907:Q 0.000831122
3 mstream_o[85] mstream_o[86] 6.13815e-05
4 busy_o mstream_o[85] 0.000115714
5 mstream_o[84] mstream_o[85] 0.000145878
*RES
1 *1907:Q mstream_o[85] 28.1592 
*END

*D_NET *104 0.00244712
*CONN
*P mstream_o[86] O
*I *1908:Q O *D sky130_fd_sc_hd__dfrtp_4
*CAP
1 mstream_o[86] 0.00104963
2 *1908:Q 0.00104963
3 mstream_o[86] mstream_o[87] 0.000145878
4 busy_o mstream_o[86] 0.000140608
5 mstream_o[85] mstream_o[86] 6.13815e-05
*RES
1 *1908:Q mstream_o[86] 29.8955 
*END

*D_NET *105 0.00226338
*CONN
*P mstream_o[87] O
*I *1909:Q O *D sky130_fd_sc_hd__dfrtp_4
*CAP
1 mstream_o[87] 0.000665151
2 *1909:Q 0.000665151
3 mstream_o[87] mstream_o[88] 6.13815e-05
4 mstream_o[87] *449:DIODE 0.000357433
5 mstream_o[87] *1994:A 0.000228508
6 mstream_o[87] *408:6 2.41649e-05
7 busy_o mstream_o[87] 0.000115714
8 mstream_o[86] mstream_o[87] 0.000145878
*RES
1 *1909:Q mstream_o[87] 27.7485 
*END

*D_NET *106 0.00291505
*CONN
*P mstream_o[88] O
*I *1910:Q O *D sky130_fd_sc_hd__dfrtp_4
*CAP
1 mstream_o[88] 0.00135219
2 *1910:Q 0.00135219
3 mstream_o[88] mstream_o[89] 0.000149293
4 mstream_o[88] mstream_o[91] 0
5 mstream_o[88] *410:141 0
6 mstream_o[87] mstream_o[88] 6.13815e-05
*RES
1 *1910:Q mstream_o[88] 21.6429 
*END

*D_NET *107 0.00194087
*CONN
*P mstream_o[89] O
*I *1911:Q O *D sky130_fd_sc_hd__dfrtp_4
*CAP
1 mstream_o[89] 0.000807242
2 *1911:Q 0.000807242
3 mstream_o[89] mstream_o[90] 6.13815e-05
4 busy_o mstream_o[89] 0.000115714
5 mstream_o[88] mstream_o[89] 0.000149293
*RES
1 *1911:Q mstream_o[89] 28.1592 
*END

*D_NET *108 0.00247719
*CONN
*P mstream_o[8] O
*I *1830:Q O *D sky130_fd_sc_hd__dfrtp_4
*CAP
1 mstream_o[8] 0.00106432
2 *1830:Q 0.00106432
3 mstream_o[8] mstream_o[9] 0.000145878
4 busy_o mstream_o[8] 0.000140608
5 mstream_o[7] mstream_o[8] 6.20702e-05
*RES
1 *1830:Q mstream_o[8] 29.8955 
*END

*D_NET *109 0.00244712
*CONN
*P mstream_o[90] O
*I *1912:Q O *D sky130_fd_sc_hd__dfrtp_4
*CAP
1 mstream_o[90] 0.00104963
2 *1912:Q 0.00104963
3 mstream_o[90] mstream_o[91] 0.000145878
4 busy_o mstream_o[90] 0.000140608
5 mstream_o[89] mstream_o[90] 6.13815e-05
*RES
1 *1912:Q mstream_o[90] 29.8955 
*END

*D_NET *110 0.00230887
*CONN
*P mstream_o[91] O
*I *1913:Q O *D sky130_fd_sc_hd__dfrtp_4
*CAP
1 mstream_o[91] 0.00105046
2 *1913:Q 0.00105046
3 mstream_o[91] mstream_o[92] 6.20702e-05
4 mstream_o[91] mstream_o[93] 0
5 mstream_o[91] *408:81 0
6 mstream_o[91] *410:141 0
7 mstream_o[88] mstream_o[91] 0
8 mstream_o[90] mstream_o[91] 0.000145878
*RES
1 *1913:Q mstream_o[91] 20.2469 
*END

*D_NET *111 0.00243663
*CONN
*P mstream_o[92] O
*I *1914:Q O *D sky130_fd_sc_hd__dfrtp_4
*CAP
1 mstream_o[92] 0.00104404
2 *1914:Q 0.00104404
3 mstream_o[92] mstream_o[93] 0.000145878
4 busy_o mstream_o[92] 0.000140608
5 mstream_o[91] mstream_o[92] 6.20702e-05
*RES
1 *1914:Q mstream_o[92] 29.8955 
*END

*D_NET *112 0.00259883
*CONN
*P mstream_o[93] O
*I *1915:Q O *D sky130_fd_sc_hd__dfrtp_4
*CAP
1 mstream_o[93] 0.00119544
2 *1915:Q 0.00119544
3 mstream_o[93] mstream_o[94] 6.20702e-05
4 mstream_o[93] mstream_o[96] 0
5 mstream_o[93] *408:105 0
6 mstream_o[93] *408:117 0
7 mstream_o[93] *410:141 0
8 mstream_o[91] mstream_o[93] 0
9 mstream_o[92] mstream_o[93] 0.000145878
*RES
1 *1915:Q mstream_o[93] 21.7303 
*END

*D_NET *113 0.00244147
*CONN
*P mstream_o[94] O
*I *1916:Q O *D sky130_fd_sc_hd__dfrtp_4
*CAP
1 mstream_o[94] 0.00105024
2 *1916:Q 0.00105024
3 mstream_o[94] mstream_o[95] 0.000131178
4 mstream_o[94] mstream_o[96] 7.14091e-06
5 busy_o mstream_o[94] 0.000140608
6 mstream_o[93] mstream_o[94] 6.20702e-05
*RES
1 *1916:Q mstream_o[94] 29.8955 
*END

*D_NET *114 0.000699733
*CONN
*P mstream_o[95] O
*I *1917:Q O *D sky130_fd_sc_hd__dfrtp_4
*CAP
1 mstream_o[95] 0.000171636
2 *1917:Q 0.000171636
3 mstream_o[95] mstream_o[96] 0.000184881
4 busy_o mstream_o[95] 4.04012e-05
5 mstream_o[94] mstream_o[95] 0.000131178
*RES
1 *1917:Q mstream_o[95] 18.73 
*END

*D_NET *115 0.00281697
*CONN
*P mstream_o[96] O
*I *1918:Q O *D sky130_fd_sc_hd__dfrtp_4
*CAP
1 mstream_o[96] 0.00129376
2 *1918:Q 0.00129376
3 mstream_o[96] mstream_o[97] 3.16528e-05
4 mstream_o[96] *1917:CLK 5.7836e-06
5 mstream_o[96] *408:117 0
6 mstream_o[93] mstream_o[96] 0
7 mstream_o[94] mstream_o[96] 7.14091e-06
8 mstream_o[95] mstream_o[96] 0.000184881
*RES
1 *1918:Q mstream_o[96] 20.2316 
*END

*D_NET *116 0.00205714
*CONN
*P mstream_o[97] O
*I *1919:Q O *D sky130_fd_sc_hd__dfrtp_4
*CAP
1 mstream_o[97] 0.000840762
2 *1919:Q 0.000840762
3 mstream_o[97] mstream_o[98] 0.000230181
4 mstream_o[97] *356:126 0
5 mstream_o[96] mstream_o[97] 3.16528e-05
6 *1:16 mstream_o[97] 0.000113778
*RES
1 *1919:Q mstream_o[97] 27.8206 
*END

*D_NET *117 0.00228668
*CONN
*P mstream_o[98] O
*I *1920:Q O *D sky130_fd_sc_hd__dfrtp_4
*CAP
1 mstream_o[98] 0.00100268
2 *1920:Q 0.00100268
3 mstream_o[98] mstream_o[99] 3.16528e-05
4 mstream_o[98] *356:126 0
5 mstream_o[97] mstream_o[98] 0.000230181
6 *1:16 mstream_o[98] 1.94879e-05
*RES
1 *1920:Q mstream_o[98] 28.1455 
*END

*D_NET *118 0.00198031
*CONN
*P mstream_o[99] O
*I *1921:Q O *D sky130_fd_sc_hd__dfrtp_4
*CAP
1 mstream_o[99] 0.000805697
2 *1921:Q 0.000805697
3 mstream_o[99] *356:130 0.000155508
4 mstream_o[99] *356:158 0
5 mstream_o[100] mstream_o[99] 6.79725e-05
6 mstream_o[98] mstream_o[99] 3.16528e-05
7 *1:16 mstream_o[99] 0.000113778
*RES
1 *1921:Q mstream_o[99] 27.8206 
*END

*D_NET *119 0.00205065
*CONN
*P mstream_o[9] O
*I *1831:Q O *D sky130_fd_sc_hd__dfrtp_4
*CAP
1 mstream_o[9] 0.000863839
2 *1831:Q 0.000863839
3 busy_o mstream_o[9] 0.000115714
4 mstream_o[10] mstream_o[9] 6.13815e-05
5 mstream_o[8] mstream_o[9] 0.000145878
*RES
1 *1831:Q mstream_o[9] 28.5699 
*END

*D_NET *120 0.00461902
*CONN
*P nrst_i I
*I *1996:A I *D sky130_fd_sc_hd__buf_4
*CAP
1 nrst_i 0.00121222
2 *1996:A 0.000800484
3 *120:19 0.0020127
4 *2:13 *1996:A 0.000593612
*RES
1 nrst_i *120:19 32.0893 
2 *120:19 *1996:A 33.3536 
*END

*D_NET *121 0.00128479
*CONN
*P sstream_i[0] I
*I *1708:D_N I *D sky130_fd_sc_hd__nor4b_1
*CAP
1 sstream_i[0] 0.000474435
2 *1708:D_N 0.000474435
3 *1708:D_N *1709:D_N 9.89535e-05
4 *1708:D_N *1710:D_N 0.000236964
*RES
1 sstream_i[0] *1708:D_N 24.605 
*END

*D_NET *122 0.00230712
*CONN
*P sstream_i[100] I
*I *1805:D_N I *D sky130_fd_sc_hd__nor4b_1
*CAP
1 sstream_i[100] 0.00082277
2 *1805:D_N 0.00082277
3 *1805:D_N *1804:D_N 9.89535e-05
4 *1805:D_N *1805:A 0.000213277
5 *1805:D_N *1805:B 6.57032e-05
6 *1805:D_N *1806:D_N 9.89535e-05
7 *1805:D_N *1949:A 2.0311e-05
8 *1805:D_N *363:16 0.000164381
*RES
1 sstream_i[100] *1805:D_N 30.0865 
*END

*D_NET *123 0.00170709
*CONN
*P sstream_i[101] I
*I *1806:D_N I *D sky130_fd_sc_hd__nor4b_1
*CAP
1 sstream_i[101] 0.000577628
2 *1806:D_N 0.000577628
3 *1806:D_N *432:DIODE 9.60875e-05
4 *1806:D_N *1807:D_N 9.78962e-05
5 *1806:D_N *1985:A 0.000110138
6 *1806:D_N *389:6 5.26625e-05
7 *1806:D_N *390:195 9.60939e-05
8 *1805:D_N *1806:D_N 9.89535e-05
*RES
1 sstream_i[101] *1806:D_N 26.9972 
*END

*D_NET *124 0.00220212
*CONN
*P sstream_i[102] I
*I *1807:D_N I *D sky130_fd_sc_hd__nor4b_1
*CAP
1 sstream_i[102] 0.00067186
2 *1807:D_N 0.00067186
3 *1807:D_N *456:DIODE 3.88131e-05
4 *1807:D_N *1807:A 0.000177821
5 *1807:D_N *1807:B 0.000136958
6 *1807:D_N *1808:D_N 9.89535e-05
7 *1807:D_N *414:144 0.000110772
8 *1807:D_N *416:39 0.000197181
9 *1806:D_N *1807:D_N 9.78962e-05
*RES
1 sstream_i[102] *1807:D_N 29.0508 
*END

*D_NET *125 0.00163314
*CONN
*P sstream_i[103] I
*I *1808:D_N I *D sky130_fd_sc_hd__nor4b_1
*CAP
1 sstream_i[103] 0.000665158
2 *1808:D_N 0.000665158
3 *1808:D_N *1809:D_N 0.000203868
4 *1807:D_N *1808:D_N 9.89535e-05
*RES
1 sstream_i[103] *1808:D_N 26.9972 
*END

*D_NET *126 0.00378394
*CONN
*P sstream_i[104] I
*I *1809:D_N I *D sky130_fd_sc_hd__nor4b_1
*CAP
1 sstream_i[104] 0.00124084
2 *1809:D_N 0.00124084
3 *1809:D_N *1810:D_N 9.89535e-05
4 *1809:D_N *1926:D 0.000269536
5 *1809:D_N *237:16 0.000545965
6 *1809:D_N *370:64 0
7 *1809:D_N *399:55 0.000179811
8 *1809:D_N *399:82 4.1331e-06
9 *1808:D_N *1809:D_N 0.000203868
*RES
1 sstream_i[104] *1809:D_N 26.8381 
*END

*D_NET *127 0.00153087
*CONN
*P sstream_i[105] I
*I *1810:D_N I *D sky130_fd_sc_hd__nor4b_1
*CAP
1 sstream_i[105] 0.000662879
2 *1810:D_N 0.000662879
3 *1810:D_N *1811:D_N 9.89535e-05
4 *1810:D_N *399:74 7.20217e-06
5 *1809:D_N *1810:D_N 9.89535e-05
*RES
1 sstream_i[105] *1810:D_N 26.9972 
*END

*D_NET *128 0.00321233
*CONN
*P sstream_i[106] I
*I *1811:D_N I *D sky130_fd_sc_hd__nor4b_1
*CAP
1 sstream_i[106] 0.00115856
2 *1811:D_N 0.00115856
3 *1811:D_N *1809:A 0.000300787
4 *1811:D_N *1811:A 4.66511e-05
5 *1811:D_N *1812:D_N 9.89535e-05
6 *1811:D_N *1814:D_N 0
7 *1811:D_N *237:16 0.000349868
8 *1810:D_N *1811:D_N 9.89535e-05
*RES
1 sstream_i[106] *1811:D_N 24.5035 
*END

*D_NET *129 0.00158533
*CONN
*P sstream_i[107] I
*I *1812:D_N I *D sky130_fd_sc_hd__nor4b_1
*CAP
1 sstream_i[107] 0.000666234
2 *1812:D_N 0.000666234
3 *1812:D_N *1813:D_N 9.89535e-05
4 *1812:D_N *399:92 5.49544e-05
5 *1811:D_N *1812:D_N 9.89535e-05
*RES
1 sstream_i[107] *1812:D_N 26.9972 
*END

*D_NET *130 0.00130774
*CONN
*P sstream_i[108] I
*I *1813:D_N I *D sky130_fd_sc_hd__nor4b_1
*CAP
1 sstream_i[108] 0.000555443
2 *1813:D_N 0.000555443
3 *1813:D_N *1814:D_N 9.78962e-05
4 *1812:D_N *1813:D_N 9.89535e-05
*RES
1 sstream_i[108] *1813:D_N 24.9436 
*END

*D_NET *131 0.00193964
*CONN
*P sstream_i[109] I
*I *1814:D_N I *D sky130_fd_sc_hd__nor4b_1
*CAP
1 sstream_i[109] 0.000767514
2 *1814:D_N 0.000767514
3 *1814:D_N *1815:D_N 9.89535e-05
4 *1814:D_N *1816:D_N 0
5 *1814:D_N *414:144 6.60244e-05
6 *1814:D_N *415:126 0.000141734
7 *1811:D_N *1814:D_N 0
8 *1813:D_N *1814:D_N 9.78962e-05
*RES
1 sstream_i[109] *1814:D_N 22.2925 
*END

*D_NET *132 0.00130589
*CONN
*P sstream_i[10] I
*I *1718:D_N I *D sky130_fd_sc_hd__nor4b_1
*CAP
1 sstream_i[10] 0.000542323
2 *1718:D_N 0.000542323
3 *1718:D_N *1717:D_N 9.89535e-05
4 *1718:D_N *1719:D_N 0.000108953
5 *1718:D_N *391:20 1.33343e-05
*RES
1 sstream_i[10] *1718:D_N 24.605 
*END

*D_NET *133 0.00199104
*CONN
*P sstream_i[110] I
*I *1815:D_N I *D sky130_fd_sc_hd__nor4b_1
*CAP
1 sstream_i[110] 0.000782311
2 *1815:D_N 0.000782311
3 *1815:D_N *1815:A 4.33899e-05
4 *1815:D_N *1816:D_N 9.89535e-05
5 *1815:D_N *415:126 0.000185124
6 *1814:D_N *1815:D_N 9.89535e-05
*RES
1 sstream_i[110] *1815:D_N 29.4258 
*END

*D_NET *134 0.00294113
*CONN
*P sstream_i[111] I
*I *1816:D_N I *D sky130_fd_sc_hd__nor4b_1
*CAP
1 sstream_i[111] 0.0012644
2 *1816:D_N 0.0012644
3 *1816:D_N *1817:D_N 9.78962e-05
4 *1816:D_N *137:17 0
5 *1816:D_N *237:16 0.000207778
6 *1816:D_N *370:90 0
7 *1816:D_N *370:101 0
8 *1816:D_N *399:126 7.69776e-06
9 *1814:D_N *1816:D_N 0
10 *1815:D_N *1816:D_N 9.89535e-05
*RES
1 sstream_i[111] *1816:D_N 22.4816 
*END

*D_NET *135 0.00128967
*CONN
*P sstream_i[112] I
*I *1817:D_N I *D sky130_fd_sc_hd__nor4b_1
*CAP
1 sstream_i[112] 0.000546408
2 *1817:D_N 0.000546408
3 *1817:D_N *1818:D_N 9.89535e-05
4 *1816:D_N *1817:D_N 9.78962e-05
*RES
1 sstream_i[112] *1817:D_N 24.9436 
*END

*D_NET *136 0.00184545
*CONN
*P sstream_i[113] I
*I *1818:D_N I *D sky130_fd_sc_hd__nor4b_1
*CAP
1 sstream_i[113] 0.000531353
2 *1818:D_N 0.000531353
3 *1818:D_N *137:17 9.78962e-05
4 *1818:D_N *398:191 0.00031434
5 *1818:D_N *414:165 0.000271553
6 *1817:D_N *1818:D_N 9.89535e-05
*RES
1 sstream_i[113] *1818:D_N 26.9972 
*END

*D_NET *137 0.00671063
*CONN
*P sstream_i[114] I
*I *1819:D_N I *D sky130_fd_sc_hd__nor4b_1
*I *1821:A I *D sky130_fd_sc_hd__or2_4
*CAP
1 sstream_i[114] 0.0014042
2 *1819:D_N 0
3 *1821:A 0.000994116
4 *137:17 0.00239831
5 *1821:A *1814:C 9.41642e-05
6 *1821:A *1931:CLK 9.90431e-05
7 *1821:A *1931:D 0.000123488
8 *1821:A *1931:RESET_B 3.93575e-05
9 *1821:A *388:193 0.000215419
10 *1821:A *388:218 1.00332e-05
11 *1821:A *389:120 0.00014338
12 *1821:A *414:144 0
13 *1821:A *415:126 1.32056e-05
14 *137:17 sstream_o 4.84757e-06
15 *137:17 *1820:D_N 9.89535e-05
16 *137:17 *388:218 0.000542829
17 *137:17 *389:120 5.69679e-05
18 *137:17 *399:141 0.000143967
19 *137:17 *414:165 0
20 *137:17 *415:126 0
21 *137:17 *415:134 3.30664e-05
22 mstream_o[109] *1821:A 0.000142157
23 *1816:D_N *137:17 0
24 *1818:D_N *137:17 9.78962e-05
25 *1821:B *1821:A 5.52302e-05
*RES
1 sstream_i[114] *137:17 13.2539 
2 *137:17 *1821:A 32.5857 
3 *137:17 *1819:D_N 13.8 
*END

*D_NET *138 0.00199896
*CONN
*P sstream_i[115] I
*I *1820:D_N I *D sky130_fd_sc_hd__nor4b_1
*CAP
1 sstream_i[115] 0.000809193
2 *1820:D_N 0.000809193
3 *1820:D_N sstream_o 9.78962e-05
4 *1820:D_N *1820:A 0.000183726
5 *137:17 *1820:D_N 9.89535e-05
*RES
1 sstream_i[115] *1820:D_N 29.6579 
*END

*D_NET *139 0.00367589
*CONN
*P sstream_i[11] I
*I *1719:D_N I *D sky130_fd_sc_hd__nor4b_1
*CAP
1 sstream_i[11] 0.00136942
2 *1719:D_N 0.00136942
3 *1719:D_N *1716:D_N 0
4 *1719:D_N *1719:B 9.90431e-05
5 *1719:D_N *1720:D_N 0.000199241
6 *1719:D_N *381:52 5.02836e-05
7 *1719:D_N *381:54 6.98762e-05
8 *1719:D_N *381:56 2.8266e-06
9 *1719:D_N *391:33 0.000159763
10 *1719:D_N *391:39 0.000247064
11 *1718:D_N *1719:D_N 0.000108953
*RES
1 sstream_i[11] *1719:D_N 25.819 
*END

*D_NET *140 0.00250895
*CONN
*P sstream_i[12] I
*I *1720:D_N I *D sky130_fd_sc_hd__nor4b_1
*CAP
1 sstream_i[12] 0.000995353
2 *1720:D_N 0.000995353
3 *1720:D_N *1720:B 5.71472e-05
4 *1720:D_N *1720:C 2.89114e-05
5 *1720:D_N *1721:D_N 0.00011001
6 *1720:D_N *1722:D_N 0
7 *1720:D_N *381:50 6.92501e-05
8 *1720:D_N *381:52 1.55485e-05
9 *1720:D_N *382:33 3.39108e-05
10 *1720:D_N *391:20 0
11 *1720:D_N *391:33 4.22135e-06
12 *1719:D_N *1720:D_N 0.000199241
*RES
1 sstream_i[12] *1720:D_N 39.9468 
*END

*D_NET *141 0.00138358
*CONN
*P sstream_i[13] I
*I *1721:D_N I *D sky130_fd_sc_hd__nor4b_1
*CAP
1 sstream_i[13] 0.000576091
2 *1721:D_N 0.000576091
3 *1721:D_N *1722:D_N 0.000108953
4 *1721:D_N *381:28 1.24368e-05
5 *1720:D_N *1721:D_N 0.00011001
*RES
1 sstream_i[13] *1721:D_N 25.3371 
*END

*D_NET *142 0.00327251
*CONN
*P sstream_i[14] I
*I *1722:D_N I *D sky130_fd_sc_hd__nor4b_1
*CAP
1 sstream_i[14] 0.0010654
2 *1722:D_N 0.0010654
3 *1722:D_N *1723:D_N 0.00026093
4 *1722:D_N *1835:D 0
5 *1722:D_N *1959:A 0.000128146
6 *1722:D_N *381:18 0.000352171
7 *1722:D_N *381:46 0.00010096
8 *1722:D_N *382:18 9.15014e-05
9 *1722:D_N *382:20 9.90431e-05
10 *1720:D_N *1722:D_N 0
11 *1721:D_N *1722:D_N 0.000108953
*RES
1 sstream_i[14] *1722:D_N 25.1053 
*END

*D_NET *143 0.0018652
*CONN
*P sstream_i[15] I
*I *1723:D_N I *D sky130_fd_sc_hd__nor4b_1
*CAP
1 sstream_i[15] 0.000745343
2 *1723:D_N 0.000745343
3 *1723:D_N *1723:A 1.00332e-05
4 *1723:D_N *1724:D_N 0.000103557
5 *1723:D_N *381:18 0
6 *1723:D_N *391:10 0
7 *1722:D_N *1723:D_N 0.00026093
*RES
1 sstream_i[15] *1723:D_N 19.9962 
*END

*D_NET *144 0.001415
*CONN
*P sstream_i[16] I
*I *1724:D_N I *D sky130_fd_sc_hd__nor4b_1
*CAP
1 sstream_i[16] 0.000423068
2 *1724:D_N 0.000423068
3 *1724:D_N *1725:D_N 0.000465307
4 *1723:D_N *1724:D_N 0.000103557
*RES
1 sstream_i[16] *1724:D_N 24.9436 
*END

*D_NET *145 0.00254678
*CONN
*P sstream_i[17] I
*I *1725:D_N I *D sky130_fd_sc_hd__nor4b_1
*CAP
1 sstream_i[17] 0.000647562
2 *1725:D_N 0.000647562
3 *1725:D_N *1724:A 0.000163107
4 *1725:D_N *1724:B 0.000226867
5 *1725:D_N *1725:B 0.000122591
6 *1725:D_N *1726:D_N 9.78962e-05
7 *1725:D_N *383:37 0
8 *1725:D_N *392:46 0.000175892
9 *1724:D_N *1725:D_N 0.000465307
*RES
1 sstream_i[17] *1725:D_N 30.0329 
*END

*D_NET *146 0.00195519
*CONN
*P sstream_i[18] I
*I *1726:D_N I *D sky130_fd_sc_hd__nor4b_1
*CAP
1 sstream_i[18] 0.000790401
2 *1726:D_N 0.000790401
3 *1726:D_N *1727:D_N 9.89535e-05
4 *1726:D_N *392:36 0.00017754
5 *1725:D_N *1726:D_N 9.78962e-05
*RES
1 sstream_i[18] *1726:D_N 29.0508 
*END

*D_NET *147 0.00151163
*CONN
*P sstream_i[19] I
*I *1727:D_N I *D sky130_fd_sc_hd__nor4b_1
*CAP
1 sstream_i[19] 0.000656862
2 *1727:D_N 0.000656862
3 *1727:D_N *1728:D_N 9.89535e-05
4 *1726:D_N *1727:D_N 9.89535e-05
*RES
1 sstream_i[19] *1727:D_N 26.9972 
*END

*D_NET *148 0.0012802
*CONN
*P sstream_i[1] I
*I *1709:D_N I *D sky130_fd_sc_hd__nor4b_1
*CAP
1 sstream_i[1] 0.000534254
2 *1709:D_N 0.000534254
3 *1709:D_N *1710:D_N 0.00011274
4 *1709:D_N *1711:D_N 0
5 *1708:D_N *1709:D_N 9.89535e-05
*RES
1 sstream_i[1] *1709:D_N 24.9436 
*END

*D_NET *149 0.00230793
*CONN
*P sstream_i[20] I
*I *1728:D_N I *D sky130_fd_sc_hd__nor4b_1
*CAP
1 sstream_i[20] 0.00101218
2 *1728:D_N 0.00101218
3 *1728:D_N *1729:D_N 9.89535e-05
4 *1728:D_N *381:18 4.28365e-05
5 *1728:D_N *382:18 4.28365e-05
6 *1727:D_N *1728:D_N 9.89535e-05
*RES
1 sstream_i[20] *1728:D_N 20.3566 
*END

*D_NET *150 0.00151163
*CONN
*P sstream_i[21] I
*I *1729:D_N I *D sky130_fd_sc_hd__nor4b_1
*CAP
1 sstream_i[21] 0.000656862
2 *1729:D_N 0.000656862
3 *1729:D_N *1730:D_N 9.89535e-05
4 *1728:D_N *1729:D_N 9.89535e-05
*RES
1 sstream_i[21] *1729:D_N 26.9972 
*END

*D_NET *151 0.00196505
*CONN
*P sstream_i[22] I
*I *1730:D_N I *D sky130_fd_sc_hd__nor4b_1
*CAP
1 sstream_i[22] 0.00079519
2 *1730:D_N 0.00079519
3 *1730:D_N *1730:A 0.000177821
4 *1730:D_N *1731:D_N 9.78962e-05
5 *1729:D_N *1730:D_N 9.89535e-05
*RES
1 sstream_i[22] *1730:D_N 29.0508 
*END

*D_NET *152 0.00154232
*CONN
*P sstream_i[23] I
*I *1731:D_N I *D sky130_fd_sc_hd__nor4b_1
*CAP
1 sstream_i[23] 0.000672735
2 *1731:D_N 0.000672735
3 *1731:D_N *1732:D_N 9.89535e-05
4 *1730:D_N *1731:D_N 9.78962e-05
*RES
1 sstream_i[23] *1731:D_N 26.9972 
*END

*D_NET *153 0.00196054
*CONN
*P sstream_i[24] I
*I *1732:D_N I *D sky130_fd_sc_hd__nor4b_1
*CAP
1 sstream_i[24] 0.000792937
2 *1732:D_N 0.000792937
3 *1732:D_N *1732:A 0.000177821
4 *1732:D_N *1733:D_N 9.78962e-05
5 *1731:D_N *1732:D_N 9.89535e-05
*RES
1 sstream_i[24] *1732:D_N 29.0508 
*END

*D_NET *154 0.0015462
*CONN
*P sstream_i[25] I
*I *1733:D_N I *D sky130_fd_sc_hd__nor4b_1
*CAP
1 sstream_i[25] 0.000664281
2 *1733:D_N 0.000664281
3 *1733:D_N *1734:D_N 9.89535e-05
4 *1733:D_N *1969:A 2.07878e-05
5 *1732:D_N *1733:D_N 9.78962e-05
*RES
1 sstream_i[25] *1733:D_N 26.9972 
*END

*D_NET *155 0.00194282
*CONN
*P sstream_i[26] I
*I *1734:D_N I *D sky130_fd_sc_hd__nor4b_1
*CAP
1 sstream_i[26] 0.00074134
2 *1734:D_N 0.00074134
3 *1734:D_N *435:DIODE 3.67142e-05
4 *1734:D_N *1734:A 8.85631e-05
5 *1734:D_N *1734:B 0.000136958
6 *1734:D_N *1735:D_N 9.89535e-05
7 *1733:D_N *1734:D_N 9.89535e-05
*RES
1 sstream_i[26] *1734:D_N 29.0508 
*END

*D_NET *156 0.0020197
*CONN
*P sstream_i[27] I
*I *1735:D_N I *D sky130_fd_sc_hd__nor4b_1
*CAP
1 sstream_i[27] 0.000683975
2 *1735:D_N 0.000683975
3 *1735:D_N *444:DIODE 9.76224e-06
4 *1735:D_N *1736:D_N 9.78962e-05
5 *1735:D_N *1978:A 3.50166e-05
6 *1735:D_N *392:14 0.000231925
7 *1735:D_N *393:6 0.000143375
8 *1735:D_N *416:173 3.48218e-05
9 *1734:D_N *1735:D_N 9.89535e-05
*RES
1 sstream_i[27] *1735:D_N 27.2472 
*END

*D_NET *157 0.00209315
*CONN
*P sstream_i[28] I
*I *1736:D_N I *D sky130_fd_sc_hd__nor4b_1
*CAP
1 sstream_i[28] 0.000795843
2 *1736:D_N 0.000795843
3 *1736:D_N *1736:A 3.3283e-05
4 *1736:D_N *1736:B 2.44266e-05
5 *1736:D_N *1736:C 1.21258e-05
6 *1736:D_N *1737:D_N 9.89535e-05
7 *1736:D_N *381:6 0.000142575
8 *1736:D_N *416:165 9.22015e-05
9 *1735:D_N *1736:D_N 9.78962e-05
*RES
1 sstream_i[28] *1736:D_N 29.1758 
*END

*D_NET *158 0.00203505
*CONN
*P sstream_i[29] I
*I *1737:D_N I *D sky130_fd_sc_hd__nor4b_1
*CAP
1 sstream_i[29] 0.000849724
2 *1737:D_N 0.000849724
3 *1737:D_N *1738:D_N 9.78962e-05
4 *1737:D_N *1980:A 3.18676e-05
5 *1737:D_N *394:10 8.54229e-05
6 *1737:D_N *400:48 2.14658e-05
7 *1736:D_N *1737:D_N 9.89535e-05
*RES
1 sstream_i[29] *1737:D_N 27.1222 
*END

*D_NET *159 0.00288324
*CONN
*P sstream_i[2] I
*I *1710:D_N I *D sky130_fd_sc_hd__nor4b_1
*CAP
1 sstream_i[2] 0.000961208
2 *1710:D_N 0.000961208
3 *1710:D_N *1708:A 8.84912e-05
4 *1710:D_N *1708:C 0.000141729
5 *1710:D_N *1710:A 9.90431e-05
6 *1710:D_N *1710:C 0.000183726
7 *1710:D_N *1711:D_N 7.57825e-05
8 *1710:D_N *1822:D 2.2351e-05
9 *1708:D_N *1710:D_N 0.000236964
10 *1709:D_N *1710:D_N 0.00011274
*RES
1 sstream_i[2] *1710:D_N 33.0138 
*END

*D_NET *160 0.00215271
*CONN
*P sstream_i[30] I
*I *1738:D_N I *D sky130_fd_sc_hd__nor4b_1
*CAP
1 sstream_i[30] 0.000752918
2 *1738:D_N 0.000752918
3 *1738:D_N *1738:B 0.000102168
4 *1738:D_N *1986:A 0.000242329
5 *1738:D_N *394:29 3.49887e-05
6 *1738:D_N *400:20 0.000145239
7 *1738:D_N *400:69 2.42516e-05
8 *1737:D_N *1738:D_N 9.78962e-05
*RES
1 sstream_i[30] *1738:D_N 30.0329 
*END

*D_NET *161 0.00207836
*CONN
*P sstream_i[31] I
*I *1986:A I *D sky130_fd_sc_hd__clkbuf_4
*CAP
1 sstream_i[31] 0.000653304
2 *1986:A 0.000653304
3 *1986:A *1739:D_N 0.000383228
4 *1986:A *400:20 0.000141734
5 *1986:A *400:24 4.46186e-06
6 *1738:D_N *1986:A 0.000242329
*RES
1 sstream_i[31] *1986:A 22.2389 
*END

*D_NET *162 0.00319724
*CONN
*P sstream_i[32] I
*I *1739:D_N I *D sky130_fd_sc_hd__nor4b_1
*CAP
1 sstream_i[32] 0.000978329
2 *1739:D_N 0.000978329
3 *1739:D_N *1739:A 0.000310532
4 *1739:D_N *1739:B 4.22349e-05
5 *1739:D_N *1739:C 0.000226271
6 *1739:D_N *1740:D_N 0.000148709
7 *1739:D_N *1741:D_N 0
8 *1739:D_N *384:66 2.11419e-05
9 *1739:D_N *394:47 8.33274e-05
10 *1739:D_N *400:82 1.94945e-05
11 *1739:D_N *416:163 5.64774e-06
12 *1986:A *1739:D_N 0.000383228
*RES
1 sstream_i[32] *1739:D_N 23.9089 
*END

*D_NET *163 0.00179867
*CONN
*P sstream_i[33] I
*I *1740:D_N I *D sky130_fd_sc_hd__nor4b_1
*CAP
1 sstream_i[33] 0.000633364
2 *1740:D_N 0.000633364
3 *1740:D_N *1741:D_N 0.000383228
4 *1739:D_N *1740:D_N 0.000148709
*RES
1 sstream_i[33] *1740:D_N 22.2925 
*END

*D_NET *164 0.00293201
*CONN
*P sstream_i[34] I
*I *1741:D_N I *D sky130_fd_sc_hd__nor4b_1
*CAP
1 sstream_i[34] 0.000977915
2 *1741:D_N 0.000977915
3 *1741:D_N *1742:D_N 9.89535e-05
4 *1741:D_N *384:66 8.67371e-05
5 *1741:D_N *394:68 1.94945e-05
6 *1741:D_N *400:82 8.14667e-05
7 *1741:D_N *403:66 0.000306297
8 *1739:D_N *1741:D_N 0
9 *1740:D_N *1741:D_N 0.000383228
*RES
1 sstream_i[34] *1741:D_N 23.3904 
*END

*D_NET *165 0.00150702
*CONN
*P sstream_i[35] I
*I *1742:D_N I *D sky130_fd_sc_hd__nor4b_1
*CAP
1 sstream_i[35] 0.000654558
2 *1742:D_N 0.000654558
3 *1742:D_N *1743:D_N 9.89535e-05
4 *1741:D_N *1742:D_N 9.89535e-05
*RES
1 sstream_i[35] *1742:D_N 26.9972 
*END

*D_NET *166 0.00325056
*CONN
*P sstream_i[36] I
*I *1743:D_N I *D sky130_fd_sc_hd__nor4b_1
*CAP
1 sstream_i[36] 0.00111482
2 *1743:D_N 0.00111482
3 *1743:D_N *1743:A 9.60875e-05
4 *1743:D_N *1744:D_N 9.89535e-05
5 *1743:D_N *394:81 0.000198698
6 *1743:D_N *394:94 0.000153663
7 *1743:D_N *403:54 0.000114833
8 *1743:D_N *403:56 0.000249486
9 *1743:D_N *403:58 1.02504e-05
10 *1742:D_N *1743:D_N 9.89535e-05
*RES
1 sstream_i[36] *1743:D_N 25.1053 
*END

*D_NET *167 0.00153048
*CONN
*P sstream_i[37] I
*I *1744:D_N I *D sky130_fd_sc_hd__nor4b_1
*CAP
1 sstream_i[37] 0.000659391
2 *1744:D_N 0.000659391
3 *1744:D_N *1745:D_N 0.00011274
4 *1744:D_N *1746:D_N 0
5 *1743:D_N *1744:D_N 9.89535e-05
*RES
1 sstream_i[37] *1744:D_N 26.9972 
*END

*D_NET *168 0.00239585
*CONN
*P sstream_i[38] I
*I *1745:D_N I *D sky130_fd_sc_hd__nor4b_1
*CAP
1 sstream_i[38] 0.000939246
2 *1745:D_N 0.000939246
3 *1745:D_N *1745:A 0.00014051
4 *1745:D_N *1745:C 5.33005e-05
5 *1745:D_N *1746:D_N 7.57825e-05
6 *1745:D_N *394:100 0.000135028
7 *1744:D_N *1745:D_N 0.00011274
*RES
1 sstream_i[38] *1745:D_N 32.7638 
*END

*D_NET *169 0.00153126
*CONN
*P sstream_i[39] I
*I *1746:D_N I *D sky130_fd_sc_hd__nor4b_1
*CAP
1 sstream_i[39] 0.000659899
2 *1746:D_N 0.000659899
3 *1746:D_N *1747:D_N 9.89535e-05
4 *1746:D_N *394:134 3.67252e-05
5 *1744:D_N *1746:D_N 0
6 *1745:D_N *1746:D_N 7.57825e-05
*RES
1 sstream_i[39] *1746:D_N 26.9972 
*END

*D_NET *170 0.00149778
*CONN
*P sstream_i[3] I
*I *1711:D_N I *D sky130_fd_sc_hd__nor4b_1
*CAP
1 sstream_i[3] 0.000639447
2 *1711:D_N 0.000639447
3 *1711:D_N *1712:D_N 0.000107363
4 *1711:D_N *1713:D_N 3.57366e-05
5 *1709:D_N *1711:D_N 0
6 *1710:D_N *1711:D_N 7.57825e-05
*RES
1 sstream_i[3] *1711:D_N 25.3371 
*END

*D_NET *171 0.00128728
*CONN
*P sstream_i[40] I
*I *1747:D_N I *D sky130_fd_sc_hd__nor4b_1
*CAP
1 sstream_i[40] 0.000507397
2 *1747:D_N 0.000507397
3 *1747:D_N *1748:D_N 9.89535e-05
4 *1747:D_N *394:157 1.74352e-05
5 *1747:D_N *403:33 5.71472e-05
6 *1746:D_N *1747:D_N 9.89535e-05
*RES
1 sstream_i[40] *1747:D_N 24.9436 
*END

*D_NET *172 0.00410464
*CONN
*P sstream_i[41] I
*I *1748:D_N I *D sky130_fd_sc_hd__nor4b_1
*CAP
1 sstream_i[41] 0.00109519
2 *1748:D_N 0.00109519
3 *1748:D_N *1748:A 5.49489e-05
4 *1748:D_N *1749:D_N 0.00090568
5 *1748:D_N *400:82 0.000537475
6 *1748:D_N *403:46 7.17836e-05
7 *1748:D_N *403:48 0.000119684
8 *1748:D_N *403:50 5.80706e-06
9 *1748:D_N *416:163 0.000119924
10 *1747:D_N *1748:D_N 9.89535e-05
*RES
1 sstream_i[41] *1748:D_N 27.1952 
*END

*D_NET *173 0.00302417
*CONN
*P sstream_i[42] I
*I *1749:D_N I *D sky130_fd_sc_hd__nor4b_1
*CAP
1 sstream_i[42] 0.000902965
2 *1749:D_N 0.000902965
3 *1749:D_N *1749:A 9.60875e-05
4 *1749:D_N *1749:C 4.58194e-05
5 *1749:D_N *1750:D_N 0.000148295
6 *1749:D_N *394:147 0
7 *1749:D_N *400:82 2.2355e-05
8 *1749:D_N *403:33 0
9 *1748:D_N *1749:D_N 0.00090568
*RES
1 sstream_i[42] *1749:D_N 23.3904 
*END

*D_NET *174 0.00185661
*CONN
*P sstream_i[43] I
*I *1750:D_N I *D sky130_fd_sc_hd__nor4b_1
*CAP
1 sstream_i[43] 0.000775624
2 *1750:D_N 0.000775624
3 *1750:D_N *1751:D_N 9.89535e-05
4 *1750:D_N *403:33 5.81116e-05
5 *1749:D_N *1750:D_N 0.000148295
*RES
1 sstream_i[43] *1750:D_N 23.2032 
*END

*D_NET *175 0.00135175
*CONN
*P sstream_i[44] I
*I *1751:D_N I *D sky130_fd_sc_hd__nor4b_1
*CAP
1 sstream_i[44] 0.000576924
2 *1751:D_N 0.000576924
3 *1751:D_N *1752:D_N 9.89535e-05
4 *1751:D_N *1964:A 0
5 *1750:D_N *1751:D_N 9.89535e-05
*RES
1 sstream_i[44] *1751:D_N 24.9436 
*END

*D_NET *176 0.00159227
*CONN
*P sstream_i[45] I
*I *1752:D_N I *D sky130_fd_sc_hd__nor4b_1
*CAP
1 sstream_i[45] 0.000697711
2 *1752:D_N 0.000697711
3 *1752:D_N *1753:D_N 9.78962e-05
4 *1752:D_N *1964:A 0
5 *1751:D_N *1752:D_N 9.89535e-05
*RES
1 sstream_i[45] *1752:D_N 26.9972 
*END

*D_NET *177 0.00349071
*CONN
*P sstream_i[46] I
*I *1753:D_N I *D sky130_fd_sc_hd__nor4b_1
*CAP
1 sstream_i[46] 0.0011961
2 *1753:D_N 0.0011961
3 *1753:D_N *1750:B 8.6229e-06
4 *1753:D_N *1751:C 5.49489e-05
5 *1753:D_N *1753:A 1.98839e-05
6 *1753:D_N *1754:D_N 9.89535e-05
7 *1753:D_N *1866:D 9.41642e-05
8 *1753:D_N *384:34 0.00011365
9 *1753:D_N *385:81 0.000199349
10 *1753:D_N *395:32 0.000222528
11 *1753:D_N *395:58 0.000149329
12 *1753:D_N *411:57 2.61189e-05
13 *1753:D_N *411:59 1.30594e-05
14 *1752:D_N *1753:D_N 9.78962e-05
*RES
1 sstream_i[46] *1753:D_N 25.4089 
*END

*D_NET *178 0.00180248
*CONN
*P sstream_i[47] I
*I *1754:D_N I *D sky130_fd_sc_hd__nor4b_1
*CAP
1 sstream_i[47] 0.000596457
2 *1754:D_N 0.000596457
3 *1754:D_N *1755:D_N 0.00011274
4 *1754:D_N *1756:D_N 0
5 *1754:D_N *1963:A 0
6 *1754:D_N *359:8 0.000397873
7 *1753:D_N *1754:D_N 9.89535e-05
*RES
1 sstream_i[47] *1754:D_N 26.9972 
*END

*D_NET *179 0.00248946
*CONN
*P sstream_i[48] I
*I *1755:D_N I *D sky130_fd_sc_hd__nor4b_1
*CAP
1 sstream_i[48] 0.000850417
2 *1755:D_N 0.000850417
3 *1755:D_N *1755:A 0.000180079
4 *1755:D_N *1755:C 5.49544e-05
5 *1755:D_N *1756:D_N 7.57825e-05
6 *1755:D_N *1963:A 0
7 *1755:D_N *1964:A 0
8 *1755:D_N *360:12 0.000365075
9 *1754:D_N *1755:D_N 0.00011274
*RES
1 sstream_i[48] *1755:D_N 32.7638 
*END

*D_NET *180 0.00160937
*CONN
*P sstream_i[49] I
*I *1756:D_N I *D sky130_fd_sc_hd__nor4b_1
*CAP
1 sstream_i[49] 0.000682125
2 *1756:D_N 0.000682125
3 *1756:D_N *1757:D_N 0.00011274
4 *1756:D_N *1758:D_N 0
5 *1756:D_N *1963:A 0
6 *1756:D_N *411:47 5.65955e-05
7 *1754:D_N *1756:D_N 0
8 *1755:D_N *1756:D_N 7.57825e-05
*RES
1 sstream_i[49] *1756:D_N 26.9972 
*END

*D_NET *181 0.00199262
*CONN
*P sstream_i[4] I
*I *1712:D_N I *D sky130_fd_sc_hd__nor4b_1
*CAP
1 sstream_i[4] 0.000727128
2 *1712:D_N 0.000727128
3 *1712:D_N *1713:D_N 0.000431
4 *1712:D_N *391:68 0
5 *1711:D_N *1712:D_N 0.000107363
*RES
1 sstream_i[4] *1712:D_N 22.0871 
*END

*D_NET *182 0.00237819
*CONN
*P sstream_i[50] I
*I *1757:D_N I *D sky130_fd_sc_hd__nor4b_1
*CAP
1 sstream_i[50] 0.00100259
2 *1757:D_N 0.00100259
3 *1757:D_N *1757:A 0.000178425
4 *1757:D_N *1757:B 6.05161e-06
5 *1757:D_N *1758:D_N 7.57825e-05
6 *1757:D_N *1963:A 0
7 *1756:D_N *1757:D_N 0.00011274
*RES
1 sstream_i[50] *1757:D_N 32.7638 
*END

*D_NET *183 0.00145718
*CONN
*P sstream_i[51] I
*I *1758:D_N I *D sky130_fd_sc_hd__nor4b_1
*CAP
1 sstream_i[51] 0.00063622
2 *1758:D_N 0.00063622
3 *1758:D_N *1759:D_N 0.000108953
4 *1758:D_N *1963:A 0
5 *1756:D_N *1758:D_N 0
6 *1757:D_N *1758:D_N 7.57825e-05
*RES
1 sstream_i[51] *1758:D_N 25.2121 
*END

*D_NET *184 0.00294281
*CONN
*P sstream_i[52] I
*I *1759:D_N I *D sky130_fd_sc_hd__nor4b_1
*CAP
1 sstream_i[52] 0.00107129
2 *1759:D_N 0.00107129
3 *1759:D_N *1758:C 5.49489e-05
4 *1759:D_N *1760:D_N 9.89535e-05
5 *1759:D_N *1873:D 1.98839e-05
6 *1759:D_N *384:34 0.000212517
7 *1759:D_N *395:115 5.59013e-05
8 *1759:D_N *395:128 0.000154901
9 *1759:D_N *411:30 9.41642e-05
10 *1759:D_N *416:163 0
11 *1758:D_N *1759:D_N 0.000108953
*RES
1 sstream_i[52] *1759:D_N 23.3904 
*END

*D_NET *185 0.00162956
*CONN
*P sstream_i[53] I
*I *1760:D_N I *D sky130_fd_sc_hd__nor4b_1
*CAP
1 sstream_i[53] 0.000639183
2 *1760:D_N 0.000639183
3 *1760:D_N *1761:D_N 9.89535e-05
4 *1760:D_N *1997:A 5.33005e-05
5 *1760:D_N *411:6 9.99853e-05
6 *1759:D_N *1760:D_N 9.89535e-05
*RES
1 sstream_i[53] *1760:D_N 26.9972 
*END

*D_NET *186 0.00187306
*CONN
*P sstream_i[54] I
*I *1761:D_N I *D sky130_fd_sc_hd__nor4b_1
*CAP
1 sstream_i[54] 0.000773873
2 *1761:D_N 0.000773873
3 *1761:D_N *452:DIODE 6.61256e-05
4 *1761:D_N *1761:B 6.05161e-06
5 *1761:D_N *1761:C 5.52302e-05
6 *1761:D_N *1762:D_N 9.89535e-05
7 *1760:D_N *1761:D_N 9.89535e-05
*RES
1 sstream_i[54] *1761:D_N 29.0508 
*END

*D_NET *187 0.0018629
*CONN
*P sstream_i[55] I
*I *1762:D_N I *D sky130_fd_sc_hd__nor4b_1
*CAP
1 sstream_i[55] 0.000541737
2 *1762:D_N 0.000541737
3 *1762:D_N *1762:C 8.67797e-05
4 *1762:D_N *1763:D_N 9.78962e-05
5 *1762:D_N *394:157 0.000226417
6 *1762:D_N *403:33 0.000269378
7 *1761:D_N *1762:D_N 9.89535e-05
*RES
1 sstream_i[55] *1762:D_N 26.9972 
*END

*D_NET *188 0.0013746
*CONN
*P sstream_i[56] I
*I *1763:D_N I *D sky130_fd_sc_hd__nor4b_1
*CAP
1 sstream_i[56] 0.000536489
2 *1763:D_N 0.000536489
3 *1763:D_N *1764:D_N 9.89535e-05
4 *1763:D_N *1989:A 3.41649e-05
5 *1763:D_N *403:6 7.0611e-05
6 *1762:D_N *1763:D_N 9.78962e-05
*RES
1 sstream_i[56] *1763:D_N 25.0686 
*END

*D_NET *189 0.0026645
*CONN
*P sstream_i[57] I
*I *1764:D_N I *D sky130_fd_sc_hd__nor4b_1
*CAP
1 sstream_i[57] 0.00108657
2 *1764:D_N 0.00108657
3 *1764:D_N *1764:A 9.90431e-05
4 *1764:D_N *1764:C 0.000100685
5 *1764:D_N *1765:D_N 9.78962e-05
6 *1764:D_N *1966:A 3.1367e-05
7 *1764:D_N *384:18 5.41794e-05
8 *1764:D_N *384:20 9.25014e-06
9 *1763:D_N *1764:D_N 9.89535e-05
*RES
1 sstream_i[57] *1764:D_N 39.2115 
*END

*D_NET *190 0.00131857
*CONN
*P sstream_i[58] I
*I *1765:D_N I *D sky130_fd_sc_hd__nor4b_1
*CAP
1 sstream_i[58] 0.000560862
2 *1765:D_N 0.000560862
3 *1765:D_N *1766:D_N 9.89535e-05
4 *1765:D_N *1966:A 0
5 *1764:D_N *1765:D_N 9.78962e-05
*RES
1 sstream_i[58] *1765:D_N 24.9436 
*END

*D_NET *191 0.00273769
*CONN
*P sstream_i[59] I
*I *1766:D_N I *D sky130_fd_sc_hd__nor4b_1
*CAP
1 sstream_i[59] 0.0010592
2 *1766:D_N 0.0010592
3 *1766:D_N *1765:C 2.06112e-05
4 *1766:D_N *1766:B 0.00016563
5 *1766:D_N *1767:D_N 9.89535e-05
6 *1766:D_N *1880:D 0.000230947
7 *1766:D_N *237:14 4.19624e-06
8 *1765:D_N *1766:D_N 9.89535e-05
*RES
1 sstream_i[59] *1766:D_N 21.9778 
*END

*D_NET *192 0.00304943
*CONN
*P sstream_i[5] I
*I *1713:D_N I *D sky130_fd_sc_hd__nor4b_1
*CAP
1 sstream_i[5] 0.000986253
2 *1713:D_N 0.000986253
3 *1713:D_N *1711:C 0.000141729
4 *1713:D_N *1713:A 9.90431e-05
5 *1713:D_N *1713:C 3.37161e-05
6 *1713:D_N *1714:D_N 9.89535e-05
7 *1713:D_N *1825:D 0.000223283
8 *1713:D_N *382:51 1.34631e-05
9 *1713:D_N *391:68 0
10 *1711:D_N *1713:D_N 3.57366e-05
11 *1712:D_N *1713:D_N 0.000431
*RES
1 sstream_i[5] *1713:D_N 30.274 
*END

*D_NET *193 0.0020958
*CONN
*P sstream_i[60] I
*I *1767:D_N I *D sky130_fd_sc_hd__nor4b_1
*CAP
1 sstream_i[60] 0.000730885
2 *1767:D_N 0.000730885
3 *1767:D_N *1767:B 0.000136958
4 *1767:D_N *1767:C 2.89114e-05
5 *1767:D_N *1768:D_N 9.89535e-05
6 *1767:D_N *1966:A 0
7 *1767:D_N *386:43 0.000270257
8 *1766:D_N *1767:D_N 9.89535e-05
*RES
1 sstream_i[60] *1767:D_N 29.0508 
*END

*D_NET *194 0.00152858
*CONN
*P sstream_i[61] I
*I *1768:D_N I *D sky130_fd_sc_hd__nor4b_1
*CAP
1 sstream_i[61] 0.000665337
2 *1768:D_N 0.000665337
3 *1768:D_N *1769:D_N 9.89535e-05
4 *1768:D_N *1966:A 0
5 *1767:D_N *1768:D_N 9.89535e-05
*RES
1 sstream_i[61] *1768:D_N 26.9972 
*END

*D_NET *195 0.00196928
*CONN
*P sstream_i[62] I
*I *1769:D_N I *D sky130_fd_sc_hd__nor4b_1
*CAP
1 sstream_i[62] 0.000796039
2 *1769:D_N 0.000796039
3 *1769:D_N *1769:B 0.000180355
4 *1769:D_N *1966:A 0
5 *1769:D_N *1976:A 9.78962e-05
6 *1768:D_N *1769:D_N 9.89535e-05
*RES
1 sstream_i[62] *1769:D_N 29.0508 
*END

*D_NET *196 0.00379473
*CONN
*P sstream_i[63] I
*I *1976:A I *D sky130_fd_sc_hd__clkbuf_4
*CAP
1 sstream_i[63] 0.00132666
2 *1976:A 0.00132666
3 *1976:A *1770:D_N 0.000143181
4 *1976:A *1771:A 4.5138e-05
5 *1976:A *1772:D_N 0
6 *1976:A *237:14 0.000319845
7 *1976:A *361:18 6.12434e-05
8 *1976:A *379:8 0.000141131
9 *1976:A *386:25 4.30608e-05
10 *1976:A *386:88 0.000144791
11 *1976:A *386:107 0.00014513
12 *1769:D_N *1976:A 9.78962e-05
*RES
1 sstream_i[63] *1976:A 26.479 
*END

*D_NET *197 0.00239775
*CONN
*P sstream_i[64] I
*I *1770:D_N I *D sky130_fd_sc_hd__nor4b_1
*CAP
1 sstream_i[64] 0.000708169
2 *1770:D_N 0.000708169
3 *1770:D_N *1770:B 0.000125394
4 *1770:D_N *1770:C 2.89114e-05
5 *1770:D_N *1771:A 1.58163e-05
6 *1770:D_N *1771:C 0.000254443
7 *1770:D_N *1771:D_N 0.000360066
8 *1770:D_N *1772:D_N 0
9 *1770:D_N *1887:D 1.03037e-05
10 *1770:D_N *1966:A 4.33002e-05
11 *1976:A *1770:D_N 0.000143181
*RES
1 sstream_i[64] *1770:D_N 28.2498 
*END

*D_NET *198 0.00146001
*CONN
*P sstream_i[65] I
*I *1771:D_N I *D sky130_fd_sc_hd__nor4b_1
*CAP
1 sstream_i[65] 0.000501022
2 *1771:D_N 0.000501022
3 *1771:D_N *1772:D_N 9.78962e-05
4 *1771:D_N *1966:A 0
5 *1770:D_N *1771:D_N 0.000360066
*RES
1 sstream_i[65] *1771:D_N 25.5508 
*END

*D_NET *199 0.00387728
*CONN
*P sstream_i[66] I
*I *1772:D_N I *D sky130_fd_sc_hd__nor4b_1
*CAP
1 sstream_i[66] 0.00130848
2 *1772:D_N 0.00130848
3 *1772:D_N *1771:A 4.23821e-05
4 *1772:D_N *1773:D_N 9.89535e-05
5 *1772:D_N *1953:A 0.000344932
6 *1772:D_N *237:14 8.4467e-05
7 *1772:D_N *396:123 4.33002e-05
8 *1772:D_N *412:57 0.000168698
9 *1772:D_N *412:59 0.000379689
10 *1770:D_N *1772:D_N 0
11 *1771:D_N *1772:D_N 9.78962e-05
12 *1976:A *1772:D_N 0
*RES
1 sstream_i[66] *1772:D_N 26.8381 
*END

*D_NET *200 0.00158533
*CONN
*P sstream_i[67] I
*I *1773:D_N I *D sky130_fd_sc_hd__nor4b_1
*CAP
1 sstream_i[67] 0.000666234
2 *1773:D_N 0.000666234
3 *1773:D_N *1774:D_N 9.89535e-05
4 *1773:D_N *396:133 5.49544e-05
5 *1772:D_N *1773:D_N 9.89535e-05
*RES
1 sstream_i[67] *1773:D_N 26.9972 
*END

*D_NET *201 0.00329819
*CONN
*P sstream_i[68] I
*I *1774:D_N I *D sky130_fd_sc_hd__nor4b_1
*CAP
1 sstream_i[68] 0.00114237
2 *1774:D_N 0.00114237
3 *1774:D_N *1774:B 3.77065e-05
4 *1774:D_N *1775:D_N 9.89535e-05
5 *1774:D_N *1776:D_N 0
6 *1774:D_N *1777:C 5.33005e-05
7 *1774:D_N *1893:D 5.49544e-05
8 *1774:D_N *237:14 2.52381e-05
9 *1774:D_N *386:116 4.51667e-05
10 *1774:D_N *386:129 0.00018404
11 *1774:D_N *386:144 0.000144125
12 *1774:D_N *396:133 3.35905e-05
13 *1774:D_N *396:158 0.000100464
14 *1774:D_N *396:177 0.000136958
15 *1774:D_N *416:126 0
16 *1773:D_N *1774:D_N 9.89535e-05
*RES
1 sstream_i[68] *1774:D_N 26.3897 
*END

*D_NET *202 0.0016928
*CONN
*P sstream_i[69] I
*I *1775:D_N I *D sky130_fd_sc_hd__nor4b_1
*CAP
1 sstream_i[69] 0.00063402
2 *1775:D_N 0.00063402
3 *1775:D_N *1776:D_N 9.78962e-05
4 *1775:D_N *412:47 0.000227911
5 *1774:D_N *1775:D_N 9.89535e-05
*RES
1 sstream_i[69] *1775:D_N 26.9972 
*END

*D_NET *203 0.00129118
*CONN
*P sstream_i[6] I
*I *1714:D_N I *D sky130_fd_sc_hd__nor4b_1
*CAP
1 sstream_i[6] 0.000547166
2 *1714:D_N 0.000547166
3 *1714:D_N *1715:D_N 9.78962e-05
4 *1713:D_N *1714:D_N 9.89535e-05
*RES
1 sstream_i[6] *1714:D_N 24.9436 
*END

*D_NET *204 0.00328894
*CONN
*P sstream_i[70] I
*I *1776:D_N I *D sky130_fd_sc_hd__nor4b_1
*CAP
1 sstream_i[70] 0.0013362
2 *1776:D_N 0.0013362
3 *1776:D_N *1774:A 1.90936e-05
4 *1776:D_N *1777:D_N 9.89535e-05
5 *1776:D_N *1778:D_N 0
6 *1776:D_N *1952:A 0.000183204
7 *1776:D_N *1983:A 3.17163e-05
8 *1776:D_N *237:14 2.68558e-05
9 *1776:D_N *237:16 0.000158823
10 *1776:D_N *367:36 0
11 *1776:D_N *367:51 0
12 *1774:D_N *1776:D_N 0
13 *1775:D_N *1776:D_N 9.78962e-05
*RES
1 sstream_i[70] *1776:D_N 24.9101 
*END

*D_NET *205 0.00141476
*CONN
*P sstream_i[71] I
*I *1777:D_N I *D sky130_fd_sc_hd__nor4b_1
*CAP
1 sstream_i[71] 0.000576086
2 *1777:D_N 0.000576086
3 *1777:D_N *1777:A 1.24368e-05
4 *1777:D_N *1778:D_N 9.78962e-05
5 *1777:D_N *386:170 5.33005e-05
6 *1776:D_N *1777:D_N 9.89535e-05
*RES
1 sstream_i[71] *1777:D_N 25.5508 
*END

*D_NET *206 0.00347557
*CONN
*P sstream_i[72] I
*I *1778:D_N I *D sky130_fd_sc_hd__nor4b_1
*CAP
1 sstream_i[72] 0.00120184
2 *1778:D_N 0.00120184
3 *1778:D_N *1776:B 0.000197968
4 *1778:D_N *1779:D_N 9.89535e-05
5 *1778:D_N *1780:A 0.000180777
6 *1778:D_N *1896:D 0.000180777
7 *1778:D_N *237:16 2.0759e-05
8 *1778:D_N *386:170 0.000237507
9 *1778:D_N *397:30 5.72546e-05
10 *1778:D_N *416:112 0
11 *1776:D_N *1778:D_N 0
12 *1777:D_N *1778:D_N 9.78962e-05
*RES
1 sstream_i[72] *1778:D_N 26.3897 
*END

*D_NET *207 0.00188365
*CONN
*P sstream_i[73] I
*I *1779:D_N I *D sky130_fd_sc_hd__nor4b_1
*CAP
1 sstream_i[73] 0.000601563
2 *1779:D_N 0.000601563
3 *1779:D_N *1776:A 8.29398e-06
4 *1779:D_N *1779:A 1.02132e-05
5 *1779:D_N *1780:D_N 9.78962e-05
6 *1779:D_N *1973:A 9.60875e-05
7 *1779:D_N *386:170 0.000304921
8 *1779:D_N *387:10 5.018e-05
9 *1779:D_N *390:153 1.39841e-05
10 *1778:D_N *1779:D_N 9.89535e-05
*RES
1 sstream_i[73] *1779:D_N 27.1222 
*END

*D_NET *208 0.00133515
*CONN
*P sstream_i[74] I
*I *1780:D_N I *D sky130_fd_sc_hd__nor4b_1
*CAP
1 sstream_i[74] 0.000569148
2 *1780:D_N 0.000569148
3 *1780:D_N *1781:D_N 9.89535e-05
4 *1779:D_N *1780:D_N 9.78962e-05
*RES
1 sstream_i[74] *1780:D_N 24.9436 
*END

*D_NET *209 0.00156137
*CONN
*P sstream_i[75] I
*I *1781:D_N I *D sky130_fd_sc_hd__nor4b_1
*CAP
1 sstream_i[75] 0.00068173
2 *1781:D_N 0.00068173
3 *1781:D_N *1782:D_N 9.89535e-05
4 *1780:D_N *1781:D_N 9.89535e-05
*RES
1 sstream_i[75] *1781:D_N 26.9972 
*END

*D_NET *210 0.0028353
*CONN
*P sstream_i[76] I
*I *1782:D_N I *D sky130_fd_sc_hd__nor4b_1
*CAP
1 sstream_i[76] 0.00115648
2 *1782:D_N 0.00115648
3 *1782:D_N *1783:D_N 9.89535e-05
4 *1782:D_N *237:16 0.000162211
5 *1782:D_N *413:31 0.000162211
6 *1781:D_N *1782:D_N 9.89535e-05
*RES
1 sstream_i[76] *1782:D_N 21.9809 
*END

*D_NET *211 0.00154697
*CONN
*P sstream_i[77] I
*I *1783:D_N I *D sky130_fd_sc_hd__nor4b_1
*CAP
1 sstream_i[77] 0.000674531
2 *1783:D_N 0.000674531
3 *1783:D_N *1784:D_N 9.89535e-05
4 *1782:D_N *1783:D_N 9.89535e-05
*RES
1 sstream_i[77] *1783:D_N 26.9972 
*END

*D_NET *212 0.00200621
*CONN
*P sstream_i[78] I
*I *1784:D_N I *D sky130_fd_sc_hd__nor4b_1
*CAP
1 sstream_i[78] 0.000764185
2 *1784:D_N 0.000764185
3 *1784:D_N *1784:B 0.000135028
4 *1784:D_N *1784:C 4.58194e-05
5 *1784:D_N *1785:D_N 9.78962e-05
6 *1784:D_N *396:194 0.000100142
7 *1783:D_N *1784:D_N 9.89535e-05
*RES
1 sstream_i[78] *1784:D_N 29.0508 
*END

*D_NET *213 0.00158217
*CONN
*P sstream_i[79] I
*I *1785:D_N I *D sky130_fd_sc_hd__nor4b_1
*CAP
1 sstream_i[79] 0.000692658
2 *1785:D_N 0.000692658
3 *1785:D_N *1786:D_N 9.89535e-05
4 *1784:D_N *1785:D_N 9.78962e-05
*RES
1 sstream_i[79] *1785:D_N 26.9972 
*END

*D_NET *214 0.00150106
*CONN
*P sstream_i[7] I
*I *1715:D_N I *D sky130_fd_sc_hd__nor4b_1
*CAP
1 sstream_i[7] 0.000652107
2 *1715:D_N 0.000652107
3 *1715:D_N *1716:D_N 9.89535e-05
4 *1714:D_N *1715:D_N 9.78962e-05
*RES
1 sstream_i[7] *1715:D_N 26.9972 
*END

*D_NET *215 0.00202491
*CONN
*P sstream_i[80] I
*I *1786:D_N I *D sky130_fd_sc_hd__nor4b_1
*CAP
1 sstream_i[80] 0.000799436
2 *1786:D_N 0.000799436
3 *1786:D_N *1786:B 0.000135028
4 *1786:D_N *1786:C 9.41642e-05
5 *1786:D_N *1787:D_N 9.78962e-05
6 *1785:D_N *1786:D_N 9.89535e-05
*RES
1 sstream_i[80] *1786:D_N 29.0508 
*END

*D_NET *216 0.00191151
*CONN
*P sstream_i[81] I
*I *1787:D_N I *D sky130_fd_sc_hd__nor4b_1
*CAP
1 sstream_i[81] 0.000846761
2 *1787:D_N 0.000846761
3 *1787:D_N *1788:D_N 9.89535e-05
4 *1787:D_N *386:170 2.11419e-05
5 *1786:D_N *1787:D_N 9.78962e-05
*RES
1 sstream_i[81] *1787:D_N 19.6927 
*END

*D_NET *217 0.00196587
*CONN
*P sstream_i[82] I
*I *1788:D_N I *D sky130_fd_sc_hd__nor4b_1
*CAP
1 sstream_i[82] 0.000731061
2 *1788:D_N 0.000731061
3 *1788:D_N *1788:A 1.24368e-05
4 *1788:D_N *1788:B 0.000178847
5 *1788:D_N *1789:D_N 9.89535e-05
6 *1788:D_N *396:202 0.000114553
7 *1787:D_N *1788:D_N 9.89535e-05
*RES
1 sstream_i[82] *1788:D_N 29.0508 
*END

*D_NET *218 0.0015666
*CONN
*P sstream_i[83] I
*I *1789:D_N I *D sky130_fd_sc_hd__nor4b_1
*CAP
1 sstream_i[83] 0.000684877
2 *1789:D_N 0.000684877
3 *1789:D_N *1790:D_N 9.78962e-05
4 *1788:D_N *1789:D_N 9.89535e-05
*RES
1 sstream_i[83] *1789:D_N 26.9972 
*END

*D_NET *219 0.00194408
*CONN
*P sstream_i[84] I
*I *1790:D_N I *D sky130_fd_sc_hd__nor4b_1
*CAP
1 sstream_i[84] 0.000777974
2 *1790:D_N 0.000777974
3 *1790:D_N *1790:A 1.24368e-05
4 *1790:D_N *1790:B 0.000178847
5 *1790:D_N *1791:D_N 9.89535e-05
6 *1789:D_N *1790:D_N 9.78962e-05
*RES
1 sstream_i[84] *1790:D_N 29.0508 
*END

*D_NET *220 0.00157917
*CONN
*P sstream_i[85] I
*I *1791:D_N I *D sky130_fd_sc_hd__nor4b_1
*CAP
1 sstream_i[85] 0.000663895
2 *1791:D_N 0.000663895
3 *1791:D_N *453:DIODE 5.45307e-05
4 *1791:D_N *1792:D_N 9.78962e-05
5 *1790:D_N *1791:D_N 9.89535e-05
*RES
1 sstream_i[85] *1791:D_N 26.9972 
*END

*D_NET *221 0.0024294
*CONN
*P sstream_i[86] I
*I *1792:D_N I *D sky130_fd_sc_hd__nor4b_1
*CAP
1 sstream_i[86] 0.00108838
2 *1792:D_N 0.00108838
3 *1792:D_N *1792:A 1.02504e-05
4 *1792:D_N *1793:D_N 9.89535e-05
5 *1792:D_N *237:16 4.5539e-05
6 *1792:D_N *369:20 0
7 *1791:D_N *1792:D_N 9.78962e-05
*RES
1 sstream_i[86] *1792:D_N 20.3566 
*END

*D_NET *222 0.00174547
*CONN
*P sstream_i[87] I
*I *1793:D_N I *D sky130_fd_sc_hd__nor4b_1
*CAP
1 sstream_i[87] 0.000654134
2 *1793:D_N 0.000654134
3 *1793:D_N *1794:D_N 9.78962e-05
4 *1793:D_N *1974:A 5.52302e-05
5 *1793:D_N *388:8 0.000185124
6 *1792:D_N *1793:D_N 9.89535e-05
*RES
1 sstream_i[87] *1793:D_N 27.2472 
*END

*D_NET *223 0.00198191
*CONN
*P sstream_i[88] I
*I *1794:D_N I *D sky130_fd_sc_hd__nor4b_1
*CAP
1 sstream_i[88] 0.00072122
2 *1794:D_N 0.00072122
3 *1794:D_N *431:DIODE 0.000114631
4 *1794:D_N *1794:B 0.000136958
5 *1794:D_N *1794:C 4.27437e-05
6 *1794:D_N *1795:D_N 9.89535e-05
7 *1794:D_N *398:24 4.82865e-05
8 *1793:D_N *1794:D_N 9.78962e-05
*RES
1 sstream_i[88] *1794:D_N 29.0508 
*END

*D_NET *224 0.00152819
*CONN
*P sstream_i[89] I
*I *1795:D_N I *D sky130_fd_sc_hd__nor4b_1
*CAP
1 sstream_i[89] 0.00066514
2 *1795:D_N 0.00066514
3 *1795:D_N *1796:D_N 9.89535e-05
4 *1794:D_N *1795:D_N 9.89535e-05
*RES
1 sstream_i[89] *1795:D_N 26.9972 
*END

*D_NET *225 0.00302915
*CONN
*P sstream_i[8] I
*I *1716:D_N I *D sky130_fd_sc_hd__nor4b_1
*CAP
1 sstream_i[8] 0.00108871
2 *1716:D_N 0.00108871
3 *1716:D_N *1716:C 4.38128e-05
4 *1716:D_N *1717:D_N 9.89535e-05
5 *1716:D_N *1828:D 6.2198e-05
6 *1716:D_N *381:56 2.30116e-06
7 *1716:D_N *381:58 1.18451e-05
8 *1716:D_N *381:66 2.8266e-06
9 *1716:D_N *382:39 5.646e-05
10 *1716:D_N *382:41 0.000105469
11 *1716:D_N *382:49 5.37741e-06
12 *1716:D_N *391:39 1.90936e-05
13 *1716:D_N *391:43 0.000138585
14 *1716:D_N *391:49 0.000150618
15 *1716:D_N *391:53 5.52302e-05
16 *1715:D_N *1716:D_N 9.89535e-05
17 *1719:D_N *1716:D_N 0
*RES
1 sstream_i[8] *1716:D_N 25.1053 
*END

*D_NET *226 0.00193908
*CONN
*P sstream_i[90] I
*I *1796:D_N I *D sky130_fd_sc_hd__nor4b_1
*CAP
1 sstream_i[90] 0.000788728
2 *1796:D_N 0.000788728
3 *1796:D_N *1796:B 9.60939e-05
4 *1796:D_N *1796:C 6.86792e-05
5 *1796:D_N *1797:D_N 9.78962e-05
6 *1795:D_N *1796:D_N 9.89535e-05
*RES
1 sstream_i[90] *1796:D_N 29.0508 
*END

*D_NET *227 0.00284286
*CONN
*P sstream_i[91] I
*I *1797:D_N I *D sky130_fd_sc_hd__nor4b_1
*CAP
1 sstream_i[91] 0.00111048
2 *1797:D_N 0.00111048
3 *1797:D_N *1798:D_N 9.89535e-05
4 *1797:D_N *237:16 0.000212522
5 *1797:D_N *414:21 0.000212522
6 *1796:D_N *1797:D_N 9.78962e-05
*RES
1 sstream_i[91] *1797:D_N 22.4816 
*END

*D_NET *228 0.00130774
*CONN
*P sstream_i[92] I
*I *1798:D_N I *D sky130_fd_sc_hd__nor4b_1
*CAP
1 sstream_i[92] 0.000555443
2 *1798:D_N 0.000555443
3 *1798:D_N *1799:D_N 9.78962e-05
4 *1797:D_N *1798:D_N 9.89535e-05
*RES
1 sstream_i[92] *1798:D_N 24.9436 
*END

*D_NET *229 0.00176549
*CONN
*P sstream_i[93] I
*I *1799:D_N I *D sky130_fd_sc_hd__nor4b_1
*CAP
1 sstream_i[93] 0.000661205
2 *1799:D_N 0.000661205
3 *1799:D_N *1799:A 4.17433e-05
4 *1799:D_N *1800:D_N 9.89535e-05
5 *1799:D_N *2000:A 5.67021e-05
6 *1799:D_N *414:79 0.000141734
7 *1799:D_N *416:10 6.05161e-06
8 *1798:D_N *1799:D_N 9.78962e-05
*RES
1 sstream_i[93] *1799:D_N 27.2472 
*END

*D_NET *230 0.00211149
*CONN
*P sstream_i[94] I
*I *1800:D_N I *D sky130_fd_sc_hd__nor4b_1
*CAP
1 sstream_i[94] 0.000715671
2 *1800:D_N 0.000715671
3 *1800:D_N *1800:A 0.000126566
4 *1800:D_N *2002:A 9.78962e-05
5 *1800:D_N *398:101 9.41642e-05
6 *1800:D_N *400:196 0.000123073
7 *1800:D_N *414:87 0.000139491
8 *1799:D_N *1800:D_N 9.89535e-05
*RES
1 sstream_i[94] *1800:D_N 29.0508 
*END

*D_NET *231 0.00356224
*CONN
*P sstream_i[95] I
*I *2002:A I *D sky130_fd_sc_hd__clkbuf_4
*CAP
1 sstream_i[95] 0.00131407
2 *2002:A 0.00131407
3 *2002:A *1799:B 5.33005e-05
4 *2002:A *1801:D_N 9.89535e-05
5 *2002:A *1915:D 4.35597e-05
6 *2002:A *237:16 0.000252724
7 *2002:A *388:89 3.17148e-05
8 *2002:A *388:102 0.000216457
9 *2002:A *416:10 0.000139485
10 *1800:D_N *2002:A 9.78962e-05
*RES
1 sstream_i[95] *2002:A 24.5524 
*END

*D_NET *232 0.00193128
*CONN
*P sstream_i[96] I
*I *1801:D_N I *D sky130_fd_sc_hd__nor4b_1
*CAP
1 sstream_i[96] 0.000797696
2 *1801:D_N 0.000797696
3 *1801:D_N *1801:A 0.000137983
4 *1801:D_N *1802:D_N 9.89535e-05
5 *2002:A *1801:D_N 9.89535e-05
*RES
1 sstream_i[96] *1801:D_N 29.0508 
*END

*D_NET *233 0.00158327
*CONN
*P sstream_i[97] I
*I *1802:D_N I *D sky130_fd_sc_hd__nor4b_1
*CAP
1 sstream_i[97] 0.000686608
2 *1802:D_N 0.000686608
3 *1802:D_N *1803:D_N 9.78962e-05
4 *1802:D_N *414:122 1.32056e-05
5 *1801:D_N *1802:D_N 9.89535e-05
*RES
1 sstream_i[97] *1802:D_N 26.9972 
*END

*D_NET *234 0.00194437
*CONN
*P sstream_i[98] I
*I *1803:D_N I *D sky130_fd_sc_hd__nor4b_1
*CAP
1 sstream_i[98] 0.000768472
2 *1803:D_N 0.000768472
3 *1803:D_N *1803:A 1.24368e-05
4 *1803:D_N *1803:C 9.41642e-05
5 *1803:D_N *1804:D_N 9.89535e-05
6 *1803:D_N *414:122 0.000103977
7 *1802:D_N *1803:D_N 9.78962e-05
*RES
1 sstream_i[98] *1803:D_N 29.0508 
*END

*D_NET *235 0.00195886
*CONN
*P sstream_i[99] I
*I *1804:D_N I *D sky130_fd_sc_hd__nor4b_1
*CAP
1 sstream_i[99] 0.000784097
2 *1804:D_N 0.000784097
3 *1804:D_N *398:168 0.000141734
4 *1804:D_N *416:39 5.10269e-05
5 *1803:D_N *1804:D_N 9.89535e-05
6 *1805:D_N *1804:D_N 9.89535e-05
*RES
1 sstream_i[99] *1804:D_N 22.2925 
*END

*D_NET *236 0.00152055
*CONN
*P sstream_i[9] I
*I *1717:D_N I *D sky130_fd_sc_hd__nor4b_1
*CAP
1 sstream_i[9] 0.000661322
2 *1717:D_N 0.000661322
3 *1716:D_N *1717:D_N 9.89535e-05
4 *1718:D_N *1717:D_N 9.89535e-05
*RES
1 sstream_i[9] *1717:D_N 26.9972 
*END

*D_NET *237 0.0315213
*CONN
*P sstream_o O
*I *1941:X O *D sky130_fd_sc_hd__buf_12
*CAP
1 sstream_o 0.00101686
2 *1941:X 0.00121622
3 *237:16 0.00439933
4 *237:14 0.0044287
5 *237:10 0.00226245
6 *237:10 *1766:B 2.14757e-05
7 *237:10 *1766:C 0.000187115
8 *237:10 *1880:D 6.44139e-06
9 *237:10 *1880:RESET_B 2.43023e-05
10 *237:10 *1881:D 5.58225e-05
11 *237:14 *1765:C 0.000145618
12 *237:14 *1766:C 0.000237191
13 *237:14 *1893:D 0.000198698
14 *237:14 *1952:A 0.00032363
15 *237:14 *1953:A 0.000554429
16 *237:14 *380:12 0
17 *237:14 *386:25 9.59994e-05
18 *237:14 *386:29 9.0059e-05
19 *237:14 *386:33 0.000250201
20 *237:14 *386:107 0.000381516
21 *237:14 *386:116 0.000225307
22 *237:14 *386:129 0.000197991
23 *237:14 *386:144 3.07426e-06
24 *237:14 *396:40 0.000188741
25 *237:14 *396:55 0.000191877
26 *237:14 *396:68 0.000236814
27 *237:14 *396:83 0.00028245
28 *237:14 *396:123 0.000272993
29 *237:14 *396:158 0.00010047
30 *237:14 *400:152 0.000129366
31 *237:14 *416:126 0
32 *237:16 *1776:A 0.000150625
33 *237:16 *1776:B 2.49484e-05
34 *237:16 *1776:C 0
35 *237:16 *1787:C 0.000177948
36 *237:16 *1791:C 0.000153054
37 *237:16 *1792:A 0.000121456
38 *237:16 *1792:B 9.65075e-05
39 *237:16 *1800:B 2.21972e-05
40 *237:16 *1809:A 5.58875e-06
41 *237:16 *1811:A 1.41029e-05
42 *237:16 *1820:A 1.50179e-05
43 *237:16 *1820:C 0.00015304
44 *237:16 *1906:CLK 0
45 *237:16 *1934:D 0
46 *237:16 *1935:CLK 0
47 *237:16 *1935:D 0
48 *237:16 *1983:A 6.53874e-05
49 *237:16 *363:16 3.29318e-05
50 *237:16 *369:20 0
51 *237:16 *370:64 0
52 *237:16 *370:101 0
53 *237:16 *370:116 0
54 *237:16 *386:170 3.84395e-05
55 *237:16 *388:40 7.38844e-05
56 *237:16 *388:53 0.000113831
57 *237:16 *388:68 0.000387169
58 *237:16 *388:89 5.64328e-05
59 *237:16 *388:102 1.30327e-05
60 *237:16 *388:119 0.000342055
61 *237:16 *388:134 0.000226289
62 *237:16 *388:155 2.2628e-05
63 *237:16 *388:193 0.00188183
64 *237:16 *388:218 0.000114698
65 *237:16 *389:120 0.000180471
66 *237:16 *389:137 0.000192512
67 *237:16 *396:206 0.000247771
68 *237:16 *396:215 0.000245342
69 *237:16 *397:30 0.000191403
70 *237:16 *397:43 0.000128154
71 *237:16 *397:52 0.000221307
72 *237:16 *397:67 0.000174797
73 *237:16 *397:76 0.000220966
74 *237:16 *397:91 0.000172013
75 *237:16 *397:100 0.000217413
76 *237:16 *398:16 0.000220455
77 *237:16 *398:56 1.08359e-05
78 *237:16 *398:71 0.000200583
79 *237:16 *398:101 0.000150625
80 *237:16 *398:141 0.00019384
81 *237:16 *398:154 0.000196269
82 *237:16 *399:36 0.000130593
83 *237:16 *399:55 7.44945e-07
84 *237:16 *399:82 0
85 *237:16 *399:107 0.000173797
86 *237:16 *399:126 0.00024056
87 *237:16 *400:152 1.90936e-05
88 *237:16 *400:162 0
89 *237:16 *400:196 2.14549e-05
90 *237:16 *412:23 0.000187019
91 *237:16 *412:25 0.00011891
92 *237:16 *412:27 0.000167691
93 *237:16 *412:39 0.00111243
94 *237:16 *413:29 1.81709e-05
95 *237:16 *413:31 1.48478e-05
96 *237:16 *413:33 9.48086e-05
97 *237:16 *413:41 8.5896e-05
98 *237:16 *414:21 8.55537e-05
99 *237:16 *414:23 9.88232e-05
100 *237:16 *414:25 0.000100735
101 *237:16 *414:27 7.15687e-05
102 *237:16 *414:93 0.000178101
103 *237:16 *414:110 6.5185e-05
104 *237:16 *414:126 0.000232402
105 *237:16 *414:144 0.000522508
106 *237:16 *416:112 0
107 mstream_o[58] *237:10 6.78793e-05
108 *1766:D_N *237:14 4.19624e-06
109 *1772:D_N *237:14 8.4467e-05
110 *1774:D_N *237:14 2.52381e-05
111 *1776:D_N *237:14 2.68558e-05
112 *1776:D_N *237:16 0.000158823
113 *1778:D_N *237:16 2.0759e-05
114 *1782:D_N *237:16 0.000162211
115 *1792:D_N *237:16 4.5539e-05
116 *1797:D_N *237:16 0.000212522
117 *1809:D_N *237:16 0.000545965
118 *1811:D_N *237:16 0.000349868
119 *1816:D_N *237:16 0.000207778
120 *1820:D_N sstream_o 9.78962e-05
121 *1976:A *237:14 0.000319845
122 *2002:A *237:16 0.000252724
123 *137:17 sstream_o 4.84757e-06
*RES
1 *1941:X *237:10 29.0321 
2 *237:10 *237:14 33.2946 
3 *237:14 *237:16 106.375 
4 *237:16 sstream_o 6.1172 
*END

*D_NET *240 0.00137052
*CONN
*I *1822:D I *D sky130_fd_sc_hd__dfrtp_4
*I *1708:Y O *D sky130_fd_sc_hd__nor4b_1
*CAP
1 *1822:D 0.000428034
2 *1708:Y 0.000428034
3 *1822:D *1710:A 8.29398e-06
4 *1822:D *1710:C 0.000346541
5 *1822:D *1822:CLK 6.8877e-05
6 *1822:D *1824:D 6.83891e-05
7 *1710:D_N *1822:D 2.2351e-05
*RES
1 *1708:Y *1822:D 26.0643 
*END

*D_NET *241 0.000251327
*CONN
*I *1922:D I *D sky130_fd_sc_hd__dfrtp_4
*I *1805:Y O *D sky130_fd_sc_hd__nor4b_1
*CAP
1 *1922:D 6.00654e-05
2 *1805:Y 6.00654e-05
3 *1922:D *1922:CLK 3.13687e-05
4 *1922:D *1949:A 9.98276e-05
*RES
1 *1805:Y *1922:D 20.3679 
*END

*D_NET *242 0.000898446
*CONN
*I *1923:D I *D sky130_fd_sc_hd__dfrtp_4
*I *1806:Y O *D sky130_fd_sc_hd__nor4b_1
*CAP
1 *1923:D 0.000255765
2 *1806:Y 0.000255765
3 *1923:D *1806:C 2.84109e-05
4 *1923:D *1923:CLK 5.97284e-05
5 *1923:D *1985:A 0.000269385
6 *1923:D *399:6 2.93922e-05
*RES
1 *1806:Y *1923:D 24.2071 
*END

*D_NET *243 0.000249707
*CONN
*I *1924:D I *D sky130_fd_sc_hd__dfrtp_4
*I *1807:Y O *D sky130_fd_sc_hd__nor4b_1
*CAP
1 *1924:D 0.000110652
2 *1807:Y 0.000110652
3 *1924:D *1924:CLK 2.84026e-05
*RES
1 *1807:Y *1924:D 20.3679 
*END

*D_NET *244 0.0007897
*CONN
*I *1925:D I *D sky130_fd_sc_hd__dfrtp_4
*I *1808:Y O *D sky130_fd_sc_hd__nor4b_1
*CAP
1 *1925:D 0.000341512
2 *1808:Y 0.000341512
3 *1925:D *1808:C 2.89016e-05
4 *1925:D *1925:CLK 7.77751e-05
*RES
1 *1808:Y *1925:D 24.0643 
*END

*D_NET *245 0.00175134
*CONN
*I *1926:D I *D sky130_fd_sc_hd__dfrtp_4
*I *1809:Y O *D sky130_fd_sc_hd__nor4b_1
*CAP
1 *1926:D 0.000432271
2 *1809:Y 0.000432271
3 *1926:D *1926:CLK 8.16977e-05
4 *1926:D *1956:A 0.000175433
5 *1926:D *370:10 0.000114553
6 *1926:D *399:55 0.000147582
7 *1926:D *399:74 9.79957e-05
8 *1809:D_N *1926:D 0.000269536
*RES
1 *1809:Y *1926:D 37.5286 
*END

*D_NET *246 0.000801777
*CONN
*I *1927:D I *D sky130_fd_sc_hd__dfrtp_4
*I *1810:Y O *D sky130_fd_sc_hd__nor4b_1
*CAP
1 *1927:D 0.000377979
2 *1810:Y 0.000377979
3 *1927:D *399:55 4.58194e-05
*RES
1 *1810:Y *1927:D 24.0643 
*END

*D_NET *247 0.00117169
*CONN
*I *1928:D I *D sky130_fd_sc_hd__dfrtp_4
*I *1811:Y O *D sky130_fd_sc_hd__nor4b_1
*CAP
1 *1928:D 0.000224023
2 *1811:Y 0.000224023
3 *1928:D *1928:CLK 1.72894e-05
4 *1928:D *1930:CLK 2.07481e-05
5 *1928:D *1930:D 0.000139202
6 *1928:D *370:64 0.000392283
7 *1928:D *371:45 7.83462e-05
8 *1928:D *371:56 7.57773e-05
*RES
1 *1811:Y *1928:D 34.475 
*END

*D_NET *248 0.000885332
*CONN
*I *1929:D I *D sky130_fd_sc_hd__dfrtp_4
*I *1812:Y O *D sky130_fd_sc_hd__nor4b_1
*CAP
1 *1929:D 0.000373885
2 *1812:Y 0.000373885
3 *1929:D *399:82 0.000137561
*RES
1 *1812:Y *1929:D 24.0643 
*END

*D_NET *249 0.00161304
*CONN
*I *1930:D I *D sky130_fd_sc_hd__dfrtp_4
*I *1813:Y O *D sky130_fd_sc_hd__nor4b_1
*CAP
1 *1930:D 0.00051205
2 *1813:Y 0.00051205
3 *1930:D *1811:C 0.000141734
4 *1930:D *1930:CLK 4.46231e-06
5 *1930:D *399:92 3.27461e-05
6 *1930:D *399:103 0.000216755
7 *1930:D *415:107 5.40438e-05
8 *1928:D *1930:D 0.000139202
*RES
1 *1813:Y *1930:D 34.6357 
*END

*D_NET *250 0.00101002
*CONN
*I *1931:D I *D sky130_fd_sc_hd__dfrtp_4
*I *1814:Y O *D sky130_fd_sc_hd__nor4b_1
*CAP
1 *1931:D 0.000423056
2 *1814:Y 0.000423056
3 *1931:D *1814:C 3.69047e-06
4 *1931:D *1931:CLK 3.67257e-05
5 *1821:A *1931:D 0.000123488
*RES
1 *1814:Y *1931:D 24.5107 
*END

*D_NET *251 0.00131061
*CONN
*I *1832:D I *D sky130_fd_sc_hd__dfrtp_4
*I *1718:Y O *D sky130_fd_sc_hd__nor4b_1
*CAP
1 *1832:D 0.000446446
2 *1718:Y 0.000446446
3 *1832:D *1718:B 5.49489e-05
4 *1832:D *1720:B 0.000271202
5 *1832:D *1720:C 1.03906e-05
6 *1832:D *1832:CLK 5.12625e-05
7 *1832:D *1834:D 2.99099e-05
*RES
1 *1718:Y *1832:D 25.3321 
*END

*D_NET *252 0.000768843
*CONN
*I *1932:D I *D sky130_fd_sc_hd__dfrtp_4
*I *1815:Y O *D sky130_fd_sc_hd__nor4b_1
*CAP
1 *1932:D 0.000308442
2 *1815:Y 0.000308442
3 *1932:D *1932:CLK 5.33433e-05
4 *1932:D *399:126 9.86146e-05
*RES
1 *1815:Y *1932:D 23.6536 
*END

*D_NET *253 0.000238088
*CONN
*I *1933:D I *D sky130_fd_sc_hd__dfrtp_4
*I *1816:Y O *D sky130_fd_sc_hd__nor4b_1
*CAP
1 *1933:D 0.000104843
2 *1816:Y 0.000104843
3 *1933:D *1933:CLK 2.84026e-05
*RES
1 *1816:Y *1933:D 20.3679 
*END

*D_NET *254 0.00133276
*CONN
*I *1934:D I *D sky130_fd_sc_hd__dfrtp_4
*I *1817:Y O *D sky130_fd_sc_hd__nor4b_1
*CAP
1 *1934:D 0.000466493
2 *1817:Y 0.000466493
3 *1934:D *1816:A 0.000266826
4 *1934:D *1816:B 5.65955e-05
5 *1934:D *1816:C 1.64621e-05
6 *1934:D *1933:CLK 3.41517e-06
7 *1934:D *1935:D 5.64797e-05
8 *237:16 *1934:D 0
*RES
1 *1817:Y *1934:D 35.7786 
*END

*D_NET *255 0.00106416
*CONN
*I *1935:D I *D sky130_fd_sc_hd__dfrtp_4
*I *1818:Y O *D sky130_fd_sc_hd__nor4b_1
*CAP
1 *1935:D 0.000437043
2 *1818:Y 0.000437043
3 *1935:D *1935:CLK 7.83659e-05
4 *1935:D *1937:D 5.52302e-05
5 *1934:D *1935:D 5.64797e-05
6 *237:16 *1935:D 0
*RES
1 *1818:Y *1935:D 33.7964 
*END

*D_NET *256 0.000436141
*CONN
*I *1936:D I *D sky130_fd_sc_hd__dfrtp_4
*I *1819:Y O *D sky130_fd_sc_hd__nor4b_1
*CAP
1 *1936:D 0.000203869
2 *1819:Y 0.000203869
3 *1936:D *1936:CLK 2.84026e-05
*RES
1 *1819:Y *1936:D 22.0107 
*END

*D_NET *257 0.00259505
*CONN
*I *1937:D I *D sky130_fd_sc_hd__dfrtp_4
*I *1820:Y O *D sky130_fd_sc_hd__nor4b_1
*CAP
1 *1937:D 0.00118995
2 *1820:Y 0.00118995
3 *1937:D *1935:CLK 2.1768e-05
4 mstream_o[114] *1937:D 0.000138144
5 *1935:D *1937:D 5.52302e-05
*RES
1 *1820:Y *1937:D 43.0643 
*END

*D_NET *258 0.00160141
*CONN
*I *1833:D I *D sky130_fd_sc_hd__dfrtp_4
*I *1719:Y O *D sky130_fd_sc_hd__nor4b_1
*CAP
1 *1833:D 0.000639322
2 *1719:Y 0.000639322
3 *1833:D *1830:CLK 0.000106026
4 *1833:D *1830:D 1.58163e-05
5 *1833:D *1834:D 5.33882e-05
6 *1833:D *373:10 0.000147532
7 *1833:D *401:104 0
8 *1833:D *401:118 0
9 *1833:D *401:125 0
*RES
1 *1719:Y *1833:D 38.4929 
*END

*D_NET *259 0.00128764
*CONN
*I *1834:D I *D sky130_fd_sc_hd__dfrtp_4
*I *1720:Y O *D sky130_fd_sc_hd__nor4b_1
*CAP
1 *1834:D 0.000374343
2 *1720:Y 0.000374343
3 *1834:D *1720:C 5.38444e-06
4 *1834:D *1832:CLK 0.000106026
5 *1834:D *1836:D 2.59355e-05
6 *1834:D *373:10 0.000318316
7 *1832:D *1834:D 2.99099e-05
8 *1833:D *1834:D 5.33882e-05
*RES
1 *1720:Y *1834:D 34.8143 
*END

*D_NET *260 0.00215825
*CONN
*I *1835:D I *D sky130_fd_sc_hd__dfrtp_4
*I *1721:Y O *D sky130_fd_sc_hd__nor4b_1
*CAP
1 *1835:D 0.000625946
2 *1721:Y 0.000625946
3 *1835:D *1722:C 0.000356629
4 *1835:D *1834:CLK 6.05161e-06
5 *1835:D *1835:CLK 0.000135028
6 *1835:D *1836:D 9.59055e-06
7 *1835:D *358:6 9.11068e-05
8 *1835:D *372:47 8.6229e-06
9 *1835:D *372:60 0.00020517
10 *1835:D *374:8 9.41642e-05
11 *1835:D *382:18 0
12 *1722:D_N *1835:D 0
*RES
1 *1721:Y *1835:D 38.1 
*END

*D_NET *261 0.00119258
*CONN
*I *1836:D I *D sky130_fd_sc_hd__dfrtp_4
*I *1722:Y O *D sky130_fd_sc_hd__nor4b_1
*CAP
1 *1836:D 0.000389945
2 *1722:Y 0.000389945
3 *1836:D *1834:CLK 2.59355e-05
4 *1836:D *373:8 6.05161e-06
5 *1836:D *373:10 0.000288564
6 *1836:D *373:34 5.66157e-05
7 *1834:D *1836:D 2.59355e-05
8 *1835:D *1836:D 9.59055e-06
*RES
1 *1722:Y *1836:D 34.6893 
*END

*D_NET *262 0.000832032
*CONN
*I *1837:D I *D sky130_fd_sc_hd__dfrtp_4
*I *1723:Y O *D sky130_fd_sc_hd__nor4b_1
*CAP
1 *1837:D 0.000347537
2 *1723:Y 0.000347537
3 *1837:D *1837:CLK 0.000136958
*RES
1 *1723:Y *1837:D 24.6179 
*END

*D_NET *263 0.00110943
*CONN
*I *1838:D I *D sky130_fd_sc_hd__dfrtp_4
*I *1724:Y O *D sky130_fd_sc_hd__nor4b_1
*CAP
1 *1838:D 0.000368433
2 *1724:Y 0.000368433
3 *1838:D *1724:A 5.49489e-05
4 *1838:D *1725:B 1.59373e-05
5 *1838:D *1725:C 1.13883e-05
6 *1838:D *1838:CLK 5.28345e-05
7 *1838:D *1839:D 2.80632e-05
8 *1838:D *392:46 0.000209388
*RES
1 *1724:Y *1838:D 25.0286 
*END

*D_NET *264 0.000838821
*CONN
*I *1839:D I *D sky130_fd_sc_hd__dfrtp_4
*I *1725:Y O *D sky130_fd_sc_hd__nor4b_1
*CAP
1 *1839:D 0.000323808
2 *1725:Y 0.000323808
3 *1839:D *1725:C 1.8461e-05
4 *1839:D *1838:CLK 0.000108975
5 *1839:D *1850:RESET_B 0
6 *1839:D *373:34 3.5707e-05
7 *1838:D *1839:D 2.80632e-05
*RES
1 *1725:Y *1839:D 32.3679 
*END

*D_NET *265 0.000269376
*CONN
*I *1840:D I *D sky130_fd_sc_hd__dfrtp_4
*I *1726:Y O *D sky130_fd_sc_hd__nor4b_1
*CAP
1 *1840:D 0.000117686
2 *1726:Y 0.000117686
3 *1840:D *1840:CLK 3.40033e-05
*RES
1 *1726:Y *1840:D 20.3679 
*END

*D_NET *266 0.000616994
*CONN
*I *1841:D I *D sky130_fd_sc_hd__dfrtp_4
*I *1727:Y O *D sky130_fd_sc_hd__nor4b_1
*CAP
1 *1841:D 0.000295529
2 *1727:Y 0.000295529
3 *1841:D *1841:CLK 2.59355e-05
*RES
1 *1727:Y *1841:D 23.2429 
*END

*D_NET *267 0.000978811
*CONN
*I *1823:D I *D sky130_fd_sc_hd__dfrtp_4
*I *1709:Y O *D sky130_fd_sc_hd__nor4b_1
*CAP
1 *1823:D 0.000449991
2 *1709:Y 0.000449991
3 *1823:D *1709:C 2.84026e-05
4 *1823:D *1823:CLK 2.89016e-05
5 *1823:D *381:120 2.15245e-05
*RES
1 *1709:Y *1823:D 25.2964 
*END

*D_NET *268 0.000321494
*CONN
*I *1842:D I *D sky130_fd_sc_hd__dfrtp_4
*I *1728:Y O *D sky130_fd_sc_hd__nor4b_1
*CAP
1 *1842:D 0.000124823
2 *1728:Y 0.000124823
3 *1842:D *1728:B 3.41517e-06
4 *1842:D *1728:C 5.38444e-06
5 *1842:D *1842:CLK 6.30476e-05
*RES
1 *1728:Y *1842:D 20.7964 
*END

*D_NET *269 0.000652274
*CONN
*I *1843:D I *D sky130_fd_sc_hd__dfrtp_4
*I *1729:Y O *D sky130_fd_sc_hd__nor4b_1
*CAP
1 *1843:D 0.000326137
2 *1729:Y 0.000326137
*RES
1 *1729:Y *1843:D 23.2429 
*END

*D_NET *270 0.000275322
*CONN
*I *1844:D I *D sky130_fd_sc_hd__dfrtp_4
*I *1730:Y O *D sky130_fd_sc_hd__nor4b_1
*CAP
1 *1844:D 0.000101302
2 *1730:Y 0.000101302
3 *1844:D *1844:CLK 5.28345e-05
4 *1844:D *374:88 1.98839e-05
*RES
1 *1730:Y *1844:D 20.3679 
*END

*D_NET *271 0.000705496
*CONN
*I *1845:D I *D sky130_fd_sc_hd__dfrtp_4
*I *1731:Y O *D sky130_fd_sc_hd__nor4b_1
*CAP
1 *1845:D 0.000352748
2 *1731:Y 0.000352748
*RES
1 *1731:Y *1845:D 23.6536 
*END

*D_NET *272 0.000259098
*CONN
*I *1846:D I *D sky130_fd_sc_hd__dfrtp_4
*I *1732:Y O *D sky130_fd_sc_hd__nor4b_1
*CAP
1 *1846:D 0.000110912
2 *1732:Y 0.000110912
3 *1846:D *1846:CLK 3.7273e-05
*RES
1 *1732:Y *1846:D 20.3679 
*END

*D_NET *273 0.000774739
*CONN
*I *1847:D I *D sky130_fd_sc_hd__dfrtp_4
*I *1733:Y O *D sky130_fd_sc_hd__nor4b_1
*CAP
1 *1847:D 0.000324593
2 *1733:Y 0.000324593
3 *1847:D *1969:A 5.8506e-05
4 *1847:D *390:43 2.15245e-05
5 *1847:D *390:45 4.55227e-05
*RES
1 *1733:Y *1847:D 24.0643 
*END

*D_NET *274 0.000238088
*CONN
*I *1848:D I *D sky130_fd_sc_hd__dfrtp_4
*I *1734:Y O *D sky130_fd_sc_hd__nor4b_1
*CAP
1 *1848:D 0.000104843
2 *1734:Y 0.000104843
3 *1848:D *1848:CLK 2.84026e-05
*RES
1 *1734:Y *1848:D 20.3679 
*END

*D_NET *275 0.000663242
*CONN
*I *1849:D I *D sky130_fd_sc_hd__dfrtp_4
*I *1735:Y O *D sky130_fd_sc_hd__nor4b_1
*CAP
1 *1849:D 0.00025403
2 *1735:Y 0.00025403
3 *1849:D *1849:CLK 5.33334e-05
4 *1849:D *1968:A 2.61099e-05
5 *1849:D *382:8 7.57394e-05
*RES
1 *1735:Y *1849:D 23.2429 
*END

*D_NET *276 0.00024085
*CONN
*I *1850:D I *D sky130_fd_sc_hd__dfrtp_4
*I *1736:Y O *D sky130_fd_sc_hd__nor4b_1
*CAP
1 *1850:D 0.000120425
2 *1736:Y 0.000120425
*RES
1 *1736:Y *1850:D 20.3679 
*END

*D_NET *277 0.00060742
*CONN
*I *1851:D I *D sky130_fd_sc_hd__dfrtp_4
*I *1737:Y O *D sky130_fd_sc_hd__nor4b_1
*CAP
1 *1851:D 0.000232062
2 *1737:Y 0.000232062
3 *1851:D *433:DIODE 3.41649e-05
4 *1851:D *1737:A 3.1367e-05
5 *1851:D *1851:CLK 7.77652e-05
*RES
1 *1737:Y *1851:D 22.8321 
*END

*D_NET *278 0.00114097
*CONN
*I *1824:D I *D sky130_fd_sc_hd__dfrtp_4
*I *1710:Y O *D sky130_fd_sc_hd__nor4b_1
*CAP
1 *1824:D 0.000295046
2 *1710:Y 0.000295046
3 *1824:D *1822:CLK 0.000424154
4 *1824:D *1827:D 5.83304e-05
5 *1822:D *1824:D 6.83891e-05
*RES
1 *1710:Y *1824:D 33.8679 
*END

*D_NET *279 0.000234428
*CONN
*I *1852:D I *D sky130_fd_sc_hd__dfrtp_4
*I *1738:Y O *D sky130_fd_sc_hd__nor4b_1
*CAP
1 *1852:D 0.000101529
2 *1738:Y 0.000101529
3 *1852:D *1852:CLK 3.13687e-05
*RES
1 *1738:Y *1852:D 20.3679 
*END

*D_NET *280 0.000337426
*CONN
*I *1853:D I *D sky130_fd_sc_hd__dfrtp_4
*I *1940:LO O *D sky130_fd_sc_hd__conb_1
*CAP
1 *1853:D 0.00012092
2 *1940:LO 0.00012092
3 *1853:D *1853:RESET_B 9.5586e-05
*RES
1 *1940:LO *1853:D 20.7964 
*END

*D_NET *281 0.000647441
*CONN
*I *1854:D I *D sky130_fd_sc_hd__dfrtp_4
*I *1739:Y O *D sky130_fd_sc_hd__nor4b_1
*CAP
1 *1854:D 0.000195518
2 *1739:Y 0.000195518
3 *1854:D *1739:C 9.90367e-05
4 *1854:D *1852:CLK 6.65302e-05
5 *1854:D *1856:D 5.83304e-05
6 *1854:D *390:37 3.25078e-05
*RES
1 *1739:Y *1854:D 31.0107 
*END

*D_NET *282 0.000804618
*CONN
*I *1855:D I *D sky130_fd_sc_hd__dfrtp_4
*I *1740:Y O *D sky130_fd_sc_hd__nor4b_1
*CAP
1 *1855:D 0.000334948
2 *1740:Y 0.000334948
3 *1855:D *1740:B 5.33005e-05
4 *1855:D *1855:CLK 5.33433e-05
5 *1855:D *394:57 2.8078e-05
*RES
1 *1740:Y *1855:D 23.6536 
*END

*D_NET *283 0.00147441
*CONN
*I *1856:D I *D sky130_fd_sc_hd__dfrtp_4
*I *1741:Y O *D sky130_fd_sc_hd__nor4b_1
*CAP
1 *1856:D 0.000388941
2 *1741:Y 0.000388941
3 *1856:D *1852:CLK 2.6949e-05
4 *1856:D *1854:CLK 1.24897e-05
5 *1856:D *1858:D 6.26673e-05
6 *1856:D *378:37 4.06782e-05
7 *1856:D *378:39 5.26184e-05
8 *1856:D *390:37 0.000442792
9 *1854:D *1856:D 5.83304e-05
*RES
1 *1741:Y *1856:D 35.9036 
*END

*D_NET *284 0.000844761
*CONN
*I *1857:D I *D sky130_fd_sc_hd__dfrtp_4
*I *1742:Y O *D sky130_fd_sc_hd__nor4b_1
*CAP
1 *1857:D 0.000357884
2 *1742:Y 0.000357884
3 *1857:D *1742:B 5.33005e-05
4 *1857:D *1853:CLK 7.56926e-05
*RES
1 *1742:Y *1857:D 24.0643 
*END

*D_NET *285 0.00120162
*CONN
*I *1858:D I *D sky130_fd_sc_hd__dfrtp_4
*I *1743:Y O *D sky130_fd_sc_hd__nor4b_1
*CAP
1 *1858:D 0.000296409
2 *1743:Y 0.000296409
3 *1858:D *1856:CLK 1.24897e-05
4 *1858:D *376:14 0.000179656
5 *1858:D *378:35 0.000172839
6 *1858:D *378:37 7.07676e-05
7 *1858:D *390:37 0.000110386
8 *1856:D *1858:D 6.26673e-05
*RES
1 *1743:Y *1858:D 34.9571 
*END

*D_NET *286 0.000709645
*CONN
*I *1859:D I *D sky130_fd_sc_hd__dfrtp_4
*I *1744:Y O *D sky130_fd_sc_hd__nor4b_1
*CAP
1 *1859:D 0.000327399
2 *1744:Y 0.000327399
3 *1859:D *1744:B 2.59355e-05
4 *1859:D *1859:CLK 2.89114e-05
*RES
1 *1744:Y *1859:D 23.2429 
*END

*D_NET *287 0.00109165
*CONN
*I *1860:D I *D sky130_fd_sc_hd__dfrtp_4
*I *1745:Y O *D sky130_fd_sc_hd__nor4b_1
*CAP
1 *1860:D 0.000294087
2 *1745:Y 0.000294087
3 *1860:D *1745:B 1.17091e-05
4 *1860:D *376:14 0.000320031
5 *1860:D *378:20 9.57064e-05
6 *1860:D *378:22 7.60306e-05
*RES
1 *1745:Y *1860:D 33.8679 
*END

*D_NET *288 0.00076836
*CONN
*I *1861:D I *D sky130_fd_sc_hd__dfrtp_4
*I *1746:Y O *D sky130_fd_sc_hd__nor4b_1
*CAP
1 *1861:D 0.00029748
2 *1746:Y 0.00029748
3 *1861:D *1746:B 5.33005e-05
4 *1861:D *1861:CLK 2.59355e-05
5 *1861:D *1863:D 9.41642e-05
*RES
1 *1746:Y *1861:D 23.2429 
*END

*D_NET *289 0.00171468
*CONN
*I *1825:D I *D sky130_fd_sc_hd__dfrtp_4
*I *1711:Y O *D sky130_fd_sc_hd__nor4b_1
*CAP
1 *1825:D 0.000581196
2 *1711:Y 0.000581196
3 *1825:D *1713:A 2.39313e-05
4 *1825:D *1713:B 9.99853e-05
5 *1825:D *1713:C 1.10868e-05
6 *1825:D *1823:CLK 7.54868e-05
7 *1825:D *1824:CLK 3.17128e-05
8 *1825:D *1825:CLK 2.77258e-05
9 *1825:D *1827:D 5.77471e-06
10 *1825:D *372:10 5.33005e-05
11 *1825:D *381:90 0
12 *1713:D_N *1825:D 0.000223283
*RES
1 *1711:Y *1825:D 36.85 
*END

*D_NET *290 0.00116197
*CONN
*I *1862:D I *D sky130_fd_sc_hd__dfrtp_4
*I *1747:Y O *D sky130_fd_sc_hd__nor4b_1
*CAP
1 *1862:D 0.000273793
2 *1747:Y 0.000273793
3 *1862:D *1747:B 0.000264749
4 *1862:D *1749:A 0.000178847
5 *1862:D *1749:B 2.23592e-05
6 *1862:D *1749:C 1.13883e-05
7 *1862:D *1864:D 9.10302e-05
8 *1862:D *403:42 4.60153e-05
*RES
1 *1747:Y *1862:D 25.0286 
*END

*D_NET *291 0.00186093
*CONN
*I *1863:D I *D sky130_fd_sc_hd__dfrtp_4
*I *1748:Y O *D sky130_fd_sc_hd__nor4b_1
*CAP
1 *1863:D 0.000520836
2 *1748:Y 0.000520836
3 *1863:D *1748:B 3.41517e-06
4 *1863:D *1860:CLK 3.64953e-05
5 *1863:D *1864:D 0.000126446
6 *1863:D *376:14 0.000149671
7 *1863:D *378:10 7.2344e-05
8 *1863:D *378:16 0.000182158
9 *1863:D *378:18 0.000145457
10 *1863:D *378:20 9.11048e-06
11 *1861:D *1863:D 9.41642e-05
*RES
1 *1748:Y *1863:D 47.0107 
*END

*D_NET *292 0.00106444
*CONN
*I *1864:D I *D sky130_fd_sc_hd__dfrtp_4
*I *1749:Y O *D sky130_fd_sc_hd__nor4b_1
*CAP
1 *1864:D 0.000252232
2 *1749:Y 0.000252232
3 *1864:D *376:10 0.00014279
4 *1864:D *376:14 0.000150632
5 *1864:D *376:43 4.90803e-05
6 *1862:D *1864:D 9.10302e-05
7 *1863:D *1864:D 0.000126446
*RES
1 *1749:Y *1864:D 33.7429 
*END

*D_NET *293 0.000869747
*CONN
*I *1865:D I *D sky130_fd_sc_hd__dfrtp_4
*I *1750:Y O *D sky130_fd_sc_hd__nor4b_1
*CAP
1 *1865:D 0.00027257
2 *1750:Y 0.00027257
3 *1865:D *1865:CLK 5.52302e-05
4 *1865:D *1981:A 0.000269378
*RES
1 *1750:Y *1865:D 23.2429 
*END

*D_NET *294 0.00128457
*CONN
*I *1866:D I *D sky130_fd_sc_hd__dfrtp_4
*I *1751:Y O *D sky130_fd_sc_hd__nor4b_1
*CAP
1 *1866:D 0.00045949
2 *1751:Y 0.00045949
3 *1866:D *1751:A 5.49489e-05
4 *1866:D *1751:B 9.58126e-05
5 *1866:D *1751:C 1.51571e-05
6 *1866:D *1753:A 6.1526e-06
7 *1866:D *1868:D 9.93586e-05
8 *1753:D_N *1866:D 9.41642e-05
*RES
1 *1751:Y *1866:D 26.4929 
*END

*D_NET *295 0.000859557
*CONN
*I *1867:D I *D sky130_fd_sc_hd__dfrtp_4
*I *1752:Y O *D sky130_fd_sc_hd__nor4b_1
*CAP
1 *1867:D 0.000285423
2 *1752:Y 0.000285423
3 *1867:D *1753:C 0.000137561
4 *1867:D *1866:CLK 7.02611e-05
5 *1867:D *376:49 2.59355e-05
6 *1867:D *385:77 5.49544e-05
*RES
1 *1752:Y *1867:D 23.6536 
*END

*D_NET *296 0.00108551
*CONN
*I *1868:D I *D sky130_fd_sc_hd__dfrtp_4
*I *1753:Y O *D sky130_fd_sc_hd__nor4b_1
*CAP
1 *1868:D 0.000233974
2 *1753:Y 0.000233974
3 *1868:D *1869:CLK 4.90803e-05
4 *1868:D *376:43 0.000103267
5 *1868:D *376:71 0.000187733
6 *1868:D *377:12 0.000178121
7 *1866:D *1868:D 9.93586e-05
*RES
1 *1753:Y *1868:D 33.7429 
*END

*D_NET *297 0.00101915
*CONN
*I *1869:D I *D sky130_fd_sc_hd__dfrtp_4
*I *1754:Y O *D sky130_fd_sc_hd__nor4b_1
*CAP
1 *1869:D 0.000372374
2 *1754:Y 0.000372374
3 *1869:D *359:8 0.000274398
*RES
1 *1754:Y *1869:D 23.5688 
*END

*D_NET *298 0.00104534
*CONN
*I *1870:D I *D sky130_fd_sc_hd__dfrtp_4
*I *1755:Y O *D sky130_fd_sc_hd__nor4b_1
*CAP
1 *1870:D 0.000212324
2 *1755:Y 0.000212324
3 *1870:D *1868:CLK 3.40142e-05
4 *1870:D *1869:CLK 0.000100831
5 *1870:D *360:12 0.000183022
6 *1870:D *377:12 0.000178101
7 *1870:D *390:37 0.000124723
*RES
1 *1755:Y *1870:D 33.7429 
*END

*D_NET *299 0.000793419
*CONN
*I *1871:D I *D sky130_fd_sc_hd__dfrtp_4
*I *1756:Y O *D sky130_fd_sc_hd__nor4b_1
*CAP
1 *1871:D 0.000390491
2 *1756:Y 0.000390491
3 *1871:D *1756:B 1.24368e-05
*RES
1 *1756:Y *1871:D 24.0643 
*END

*D_NET *300 0.00143747
*CONN
*I *1826:D I *D sky130_fd_sc_hd__dfrtp_4
*I *1712:Y O *D sky130_fd_sc_hd__nor4b_1
*CAP
1 *1826:D 0.000600172
2 *1712:Y 0.000600172
3 *1826:D *1827:CLK 2.79421e-05
4 *1826:D *1827:D 0.000100823
5 *1826:D *365:21 9.25014e-06
6 *1826:D *365:49 9.91086e-05
*RES
1 *1712:Y *1826:D 35.2429 
*END

*D_NET *301 0.00116007
*CONN
*I *1872:D I *D sky130_fd_sc_hd__dfrtp_4
*I *1757:Y O *D sky130_fd_sc_hd__nor4b_1
*CAP
1 *1872:D 0.00024964
2 *1757:Y 0.00024964
3 *1872:D *1757:C 1.8461e-05
4 *1872:D *1870:CLK 0.000302394
5 *1872:D *375:16 0.000169405
6 *1872:D *377:12 0.000170532
*RES
1 *1757:Y *1872:D 33.8679 
*END

*D_NET *302 0.00189485
*CONN
*I *1873:D I *D sky130_fd_sc_hd__dfrtp_4
*I *1758:Y O *D sky130_fd_sc_hd__nor4b_1
*CAP
1 *1873:D 0.000539794
2 *1758:Y 0.000539794
3 *1873:D *428:DIODE 9.41642e-05
4 *1873:D *1758:B 0.000223463
5 *1873:D *1758:C 0.0001826
6 *1873:D *1759:C 2.27766e-05
7 *1873:D *1872:CLK 3.69047e-06
8 *1873:D *1874:D 1.03037e-05
9 *1873:D *377:10 5.33005e-05
10 *1873:D *377:12 0.000168334
11 *1873:D *377:36 2.21254e-05
12 *1873:D *385:25 0
13 *1873:D *411:30 1.46231e-05
14 *1759:D_N *1873:D 1.98839e-05
*RES
1 *1758:Y *1873:D 37.7964 
*END

*D_NET *303 0.00119253
*CONN
*I *1874:D I *D sky130_fd_sc_hd__dfrtp_4
*I *1759:Y O *D sky130_fd_sc_hd__nor4b_1
*CAP
1 *1874:D 0.000260416
2 *1759:Y 0.000260416
3 *1874:D *1759:C 1.8461e-05
4 *1874:D *1872:CLK 0.00015012
5 *1874:D *375:12 0.000169405
6 *1874:D *375:14 0.000138939
7 *1874:D *375:16 9.25014e-06
8 *1874:D *377:12 3.69697e-05
9 *1874:D *377:36 0.000106542
10 *1874:D *377:49 3.17067e-05
11 *1873:D *1874:D 1.03037e-05
*RES
1 *1759:Y *1874:D 33.8679 
*END

*D_NET *304 0.000773476
*CONN
*I *1875:D I *D sky130_fd_sc_hd__dfrtp_4
*I *1760:Y O *D sky130_fd_sc_hd__nor4b_1
*CAP
1 *1875:D 0.000261036
2 *1760:Y 0.000261036
3 *1875:D *1760:B 6.05161e-06
4 *1875:D *1760:C 0
5 *1875:D *1875:CLK 5.52302e-05
6 *1875:D *1971:A 9.41359e-05
7 *1875:D *385:6 4.26863e-05
8 *1875:D *411:17 5.33005e-05
*RES
1 *1760:Y *1875:D 23.7964 
*END

*D_NET *305 0.000258365
*CONN
*I *1876:D I *D sky130_fd_sc_hd__dfrtp_4
*I *1761:Y O *D sky130_fd_sc_hd__nor4b_1
*CAP
1 *1876:D 0.000114981
2 *1761:Y 0.000114981
3 *1876:D *1876:CLK 2.84026e-05
*RES
1 *1761:Y *1876:D 20.3679 
*END

*D_NET *306 0.000680087
*CONN
*I *1877:D I *D sky130_fd_sc_hd__dfrtp_4
*I *1762:Y O *D sky130_fd_sc_hd__nor4b_1
*CAP
1 *1877:D 0.000243578
2 *1762:Y 0.000243578
3 *1877:D *427:DIODE 9.58126e-05
4 *1877:D *390:33 9.71197e-05
*RES
1 *1762:Y *1877:D 22.8321 
*END

*D_NET *307 0.00118281
*CONN
*I *1878:D I *D sky130_fd_sc_hd__dfrtp_4
*I *1763:Y O *D sky130_fd_sc_hd__nor4b_1
*CAP
1 *1878:D 0.000372085
2 *1763:Y 0.000372085
3 *1878:D *1764:B 1.8303e-05
4 *1878:D *1764:C 0.000356126
5 *1878:D *1878:CLK 4.30778e-05
6 *1878:D *384:12 2.11279e-05
*RES
1 *1763:Y *1878:D 25.6357 
*END

*D_NET *308 0.000862992
*CONN
*I *1879:D I *D sky130_fd_sc_hd__dfrtp_4
*I *1764:Y O *D sky130_fd_sc_hd__nor4b_1
*CAP
1 *1879:D 0.000316103
2 *1764:Y 0.000316103
3 *1879:D *1970:A 5.52238e-05
4 *1879:D *380:12 2.99247e-05
5 *1879:D *384:12 0.00010137
6 *1879:D *390:20 4.42686e-05
*RES
1 *1764:Y *1879:D 32.9571 
*END

*D_NET *309 0.00182455
*CONN
*I *1880:D I *D sky130_fd_sc_hd__dfrtp_4
*I *1765:Y O *D sky130_fd_sc_hd__nor4b_1
*CAP
1 *1880:D 0.000421964
2 *1765:Y 0.000421964
3 *1880:D *1765:A 0.000316351
4 *1880:D *1766:B 0.000145392
5 *1880:D *1766:C 1.13883e-05
6 *1880:D *1881:D 0.000189316
7 *1880:D *390:16 8.07879e-05
8 *1766:D_N *1880:D 0.000230947
9 *237:10 *1880:D 6.44139e-06
*RES
1 *1765:Y *1880:D 37.0464 
*END

*D_NET *310 0.000633472
*CONN
*I *1881:D I *D sky130_fd_sc_hd__dfrtp_4
*I *1766:Y O *D sky130_fd_sc_hd__nor4b_1
*CAP
1 *1881:D 0.000169703
2 *1766:Y 0.000169703
3 *1881:D *390:16 4.89264e-05
4 *1880:D *1881:D 0.000189316
5 *237:10 *1881:D 5.58225e-05
*RES
1 *1766:Y *1881:D 31.5464 
*END

*D_NET *311 0.00169236
*CONN
*I *1827:D I *D sky130_fd_sc_hd__dfrtp_4
*I *1713:Y O *D sky130_fd_sc_hd__nor4b_1
*CAP
1 *1827:D 0.000628712
2 *1713:Y 0.000628712
3 *1827:D *1822:CLK 3.90513e-05
4 *1827:D *1824:CLK 2.07481e-05
5 *1827:D *1827:CLK 6.05161e-06
6 *1827:D *365:21 0.000191009
7 *1827:D *365:49 1.31516e-05
8 *1824:D *1827:D 5.83304e-05
9 *1825:D *1827:D 5.77471e-06
10 *1826:D *1827:D 0.000100823
*RES
1 *1713:Y *1827:D 38.85 
*END

*D_NET *312 0.000303294
*CONN
*I *1882:D I *D sky130_fd_sc_hd__dfrtp_4
*I *1767:Y O *D sky130_fd_sc_hd__nor4b_1
*CAP
1 *1882:D 0.00011157
2 *1767:Y 0.00011157
3 *1882:D *1882:CLK 3.13687e-05
4 *1882:D *380:51 4.87854e-05
*RES
1 *1767:Y *1882:D 20.3679 
*END

*D_NET *313 0.000709619
*CONN
*I *1883:D I *D sky130_fd_sc_hd__dfrtp_4
*I *1768:Y O *D sky130_fd_sc_hd__nor4b_1
*CAP
1 *1883:D 0.00034517
2 *1768:Y 0.00034517
3 *1883:D *1768:A 1.92789e-05
*RES
1 *1768:Y *1883:D 23.6536 
*END

*D_NET *314 0.000258449
*CONN
*I *1884:D I *D sky130_fd_sc_hd__dfrtp_4
*I *1769:Y O *D sky130_fd_sc_hd__nor4b_1
*CAP
1 *1884:D 0.000105291
2 *1769:Y 0.000105291
3 *1884:D *1884:CLK 4.78664e-05
*RES
1 *1769:Y *1884:D 20.3679 
*END

*D_NET *315 0.000452224
*CONN
*I *1885:D I *D sky130_fd_sc_hd__dfrtp_4
*I *1939:LO O *D sky130_fd_sc_hd__conb_1
*CAP
1 *1885:D 0.000226112
2 *1939:LO 0.000226112
*RES
1 *1939:LO *1885:D 30.6 
*END

*D_NET *316 0.000258974
*CONN
*I *1886:D I *D sky130_fd_sc_hd__dfrtp_4
*I *1770:Y O *D sky130_fd_sc_hd__nor4b_1
*CAP
1 *1886:D 0.000100644
2 *1770:Y 0.000100644
3 *1886:D *1886:CLK 5.28345e-05
4 *1886:D *1887:D 4.85049e-06
*RES
1 *1770:Y *1886:D 20.3679 
*END

*D_NET *317 0.00185565
*CONN
*I *1887:D I *D sky130_fd_sc_hd__dfrtp_4
*I *1771:Y O *D sky130_fd_sc_hd__nor4b_1
*CAP
1 *1887:D 0.000670669
2 *1771:Y 0.000670669
3 *1887:D *1770:B 0.000272302
4 *1887:D *1770:C 1.13883e-05
5 *1887:D *1886:CLK 1.9774e-05
6 *1887:D *1887:CLK 0.000100084
7 *1887:D *361:18 5.04705e-05
8 *1887:D *379:8 4.51416e-05
9 *1770:D_N *1887:D 1.03037e-05
10 *1886:D *1887:D 4.85049e-06
*RES
1 *1771:Y *1887:D 36.725 
*END

*D_NET *318 0.000967314
*CONN
*I *1888:D I *D sky130_fd_sc_hd__dfrtp_4
*I *1772:Y O *D sky130_fd_sc_hd__nor4b_1
*CAP
1 *1888:D 0.000322658
2 *1772:Y 0.000322658
3 *1888:D *1890:CLK 2.07481e-05
4 *1888:D *379:25 3.34366e-05
5 *1888:D *379:40 0.000267814
*RES
1 *1772:Y *1888:D 33.1357 
*END

*D_NET *319 0.000757357
*CONN
*I *1889:D I *D sky130_fd_sc_hd__dfrtp_4
*I *1773:Y O *D sky130_fd_sc_hd__nor4b_1
*CAP
1 *1889:D 0.000342801
2 *1773:Y 0.000342801
3 *1889:D *1773:A 2.59355e-05
4 *1889:D *1889:CLK 4.58194e-05
*RES
1 *1773:Y *1889:D 23.6536 
*END

*D_NET *320 0.00101351
*CONN
*I *1890:D I *D sky130_fd_sc_hd__dfrtp_4
*I *1774:Y O *D sky130_fd_sc_hd__nor4b_1
*CAP
1 *1890:D 0.000306137
2 *1774:Y 0.000306137
3 *1890:D *1893:CLK 0.000150618
4 *1890:D *379:40 9.25014e-06
5 *1890:D *379:53 0.000150632
6 *1890:D *396:194 9.07317e-05
*RES
1 *1774:Y *1890:D 33.1357 
*END

*D_NET *321 0.000797927
*CONN
*I *1891:D I *D sky130_fd_sc_hd__dfrtp_4
*I *1775:Y O *D sky130_fd_sc_hd__nor4b_1
*CAP
1 *1891:D 0.000259675
2 *1775:Y 0.000259675
3 *1891:D *362:8 0.000225276
4 *1891:D *412:53 5.33005e-05
*RES
1 *1775:Y *1891:D 23.2429 
*END

*D_NET *322 0.00111325
*CONN
*I *1828:D I *D sky130_fd_sc_hd__dfrtp_4
*I *1714:Y O *D sky130_fd_sc_hd__nor4b_1
*CAP
1 *1828:D 0.000231501
2 *1714:Y 0.000231501
3 *1828:D *1716:C 6.74893e-05
4 *1828:D *1828:CLK 7.11463e-05
5 *1828:D *1830:D 9.37077e-05
6 *1828:D *381:66 0.000133398
7 *1828:D *381:68 0.000139632
8 *1828:D *382:120 5.49489e-05
9 *1828:D *391:53 2.77289e-05
10 *1716:D_N *1828:D 6.2198e-05
*RES
1 *1714:Y *1828:D 25.0286 
*END

*D_NET *323 0.00109138
*CONN
*I *1892:D I *D sky130_fd_sc_hd__dfrtp_4
*I *1776:Y O *D sky130_fd_sc_hd__nor4b_1
*CAP
1 *1892:D 0.00025798
2 *1776:Y 0.00025798
3 *1892:D *1893:CLK 0.000153047
4 *1892:D *1894:CLK 2.07481e-05
5 *1892:D *366:10 7.6644e-05
6 *1892:D *367:51 3.22834e-05
7 *1892:D *396:194 0.000292701
*RES
1 *1776:Y *1892:D 33.1357 
*END

*D_NET *324 0.00156632
*CONN
*I *1893:D I *D sky130_fd_sc_hd__dfrtp_4
*I *1777:Y O *D sky130_fd_sc_hd__nor4b_1
*CAP
1 *1893:D 0.000438236
2 *1777:Y 0.000438236
3 *1893:D *1774:B 4.35597e-05
4 *1893:D *1777:C 2.6269e-05
5 *1893:D *1893:CLK 5.33005e-05
6 *1893:D *1952:A 2.59355e-05
7 *1893:D *366:10 0.000255002
8 *1893:D *386:144 2.60746e-05
9 *1893:D *386:148 6.05161e-06
10 *1774:D_N *1893:D 5.49544e-05
11 *237:14 *1893:D 0.000198698
*RES
1 *1777:Y *1893:D 37.3857 
*END

*D_NET *325 0.00115682
*CONN
*I *1894:D I *D sky130_fd_sc_hd__dfrtp_4
*I *1778:Y O *D sky130_fd_sc_hd__nor4b_1
*CAP
1 *1894:D 0.000235356
2 *1778:Y 0.000235356
3 *1894:D *1896:D 9.07317e-05
4 *1894:D *366:10 9.25014e-06
5 *1894:D *366:23 0.000291
6 *1894:D *396:194 0.00029513
*RES
1 *1778:Y *1894:D 33.1357 
*END

*D_NET *326 0.000828311
*CONN
*I *1895:D I *D sky130_fd_sc_hd__dfrtp_4
*I *1779:Y O *D sky130_fd_sc_hd__nor4b_1
*CAP
1 *1895:D 0.000299729
2 *1779:Y 0.000299729
3 *1895:D *1895:CLK 2.59355e-05
4 *1895:D *1983:A 0.000139208
5 *1895:D *397:6 6.8377e-06
6 *1895:D *413:41 5.68713e-05
*RES
1 *1779:Y *1895:D 23.2429 
*END

*D_NET *327 0.00108013
*CONN
*I *1896:D I *D sky130_fd_sc_hd__dfrtp_4
*I *1780:Y O *D sky130_fd_sc_hd__nor4b_1
*CAP
1 *1896:D 0.00035643
2 *1780:Y 0.00035643
3 *1896:D *1778:B 1.46231e-05
4 *1896:D *1778:C 1.13883e-05
5 *1896:D *1780:A 4.13496e-05
6 *1896:D *1896:CLK 2.84026e-05
7 *1778:D_N *1896:D 0.000180777
8 *1894:D *1896:D 9.07317e-05
*RES
1 *1780:Y *1896:D 25.0286 
*END

*D_NET *328 0.000750091
*CONN
*I *1897:D I *D sky130_fd_sc_hd__dfrtp_4
*I *1781:Y O *D sky130_fd_sc_hd__nor4b_1
*CAP
1 *1897:D 0.000336197
2 *1781:Y 0.000336197
3 *1897:D *1781:A 2.89016e-05
4 *1897:D *1897:CLK 4.87953e-05
*RES
1 *1781:Y *1897:D 23.6536 
*END

*D_NET *329 0.000272696
*CONN
*I *1898:D I *D sky130_fd_sc_hd__dfrtp_4
*I *1782:Y O *D sky130_fd_sc_hd__nor4b_1
*CAP
1 *1898:D 0.000112205
2 *1782:Y 0.000112205
3 *1898:D *1898:CLK 4.82865e-05
*RES
1 *1782:Y *1898:D 20.3679 
*END

*D_NET *330 0.000688243
*CONN
*I *1899:D I *D sky130_fd_sc_hd__dfrtp_4
*I *1783:Y O *D sky130_fd_sc_hd__nor4b_1
*CAP
1 *1899:D 0.000331154
2 *1783:Y 0.000331154
3 *1899:D *1783:A 2.59355e-05
*RES
1 *1783:Y *1899:D 23.2429 
*END

*D_NET *331 0.000278191
*CONN
*I *1900:D I *D sky130_fd_sc_hd__dfrtp_4
*I *1784:Y O *D sky130_fd_sc_hd__nor4b_1
*CAP
1 *1900:D 9.91836e-05
2 *1784:Y 9.91836e-05
3 *1900:D *1900:CLK 4.82865e-05
4 *1900:D *396:194 3.15374e-05
*RES
1 *1784:Y *1900:D 20.3679 
*END

*D_NET *332 0.000593552
*CONN
*I *1901:D I *D sky130_fd_sc_hd__dfrtp_4
*I *1785:Y O *D sky130_fd_sc_hd__nor4b_1
*CAP
1 *1901:D 0.000270126
2 *1785:Y 0.000270126
3 *1901:D *1785:A 5.33005e-05
*RES
1 *1785:Y *1901:D 22.8321 
*END

*D_NET *333 0.000788687
*CONN
*I *1829:D I *D sky130_fd_sc_hd__dfrtp_4
*I *1715:Y O *D sky130_fd_sc_hd__nor4b_1
*CAP
1 *1829:D 0.000360669
2 *1715:Y 0.000360669
3 *1829:D *1715:A 5.52238e-05
4 *1829:D *1716:B 1.21258e-05
*RES
1 *1715:Y *1829:D 23.6536 
*END

*D_NET *334 0.000287277
*CONN
*I *1902:D I *D sky130_fd_sc_hd__dfrtp_4
*I *1786:Y O *D sky130_fd_sc_hd__nor4b_1
*CAP
1 *1902:D 9.43115e-05
2 *1786:Y 9.43115e-05
3 *1902:D *1902:CLK 5.28345e-05
4 *1902:D *367:105 4.58194e-05
*RES
1 *1786:Y *1902:D 20.3679 
*END

*D_NET *335 0.000884319
*CONN
*I *1903:D I *D sky130_fd_sc_hd__dfrtp_4
*I *1787:Y O *D sky130_fd_sc_hd__nor4b_1
*CAP
1 *1903:D 0.000310579
2 *1787:Y 0.000310579
3 *1903:D *1787:A 2.59355e-05
4 *1903:D *413:8 8.43535e-06
5 *1903:D *416:82 8.70565e-05
6 *1903:D *416:112 0.000141734
*RES
1 *1787:Y *1903:D 23.6536 
*END

*D_NET *336 0.000271932
*CONN
*I *1904:D I *D sky130_fd_sc_hd__dfrtp_4
*I *1788:Y O *D sky130_fd_sc_hd__nor4b_1
*CAP
1 *1904:D 0.000111823
2 *1788:Y 0.000111823
3 *1904:D *1904:CLK 4.82865e-05
*RES
1 *1788:Y *1904:D 20.3679 
*END

*D_NET *337 0.000702188
*CONN
*I *1905:D I *D sky130_fd_sc_hd__dfrtp_4
*I *1789:Y O *D sky130_fd_sc_hd__nor4b_1
*CAP
1 *1905:D 0.000348068
2 *1789:Y 0.000348068
3 *1905:D *1789:A 6.05161e-06
*RES
1 *1789:Y *1905:D 23.6536 
*END

*D_NET *338 0.000228172
*CONN
*I *1906:D I *D sky130_fd_sc_hd__dfrtp_4
*I *1790:Y O *D sky130_fd_sc_hd__nor4b_1
*CAP
1 *1906:D 0.000114086
2 *1790:Y 0.000114086
*RES
1 *1790:Y *1906:D 20.3679 
*END

*D_NET *339 0.000886613
*CONN
*I *1907:D I *D sky130_fd_sc_hd__dfrtp_4
*I *1791:Y O *D sky130_fd_sc_hd__nor4b_1
*CAP
1 *1907:D 0.000258337
2 *1791:Y 0.000258337
3 *1907:D *453:DIODE 0.000169564
4 *1907:D *1791:A 1.33343e-05
5 *1907:D *412:6 0.000187041
6 *1907:D *412:23 0
*RES
1 *1791:Y *1907:D 24.2071 
*END

*D_NET *340 0.000293713
*CONN
*I *1908:D I *D sky130_fd_sc_hd__dfrtp_4
*I *1792:Y O *D sky130_fd_sc_hd__nor4b_1
*CAP
1 *1908:D 0.000132655
2 *1792:Y 0.000132655
3 *1908:D *1908:CLK 2.84026e-05
*RES
1 *1792:Y *1908:D 20.3679 
*END

*D_NET *341 0.000894734
*CONN
*I *1909:D I *D sky130_fd_sc_hd__dfrtp_4
*I *1793:Y O *D sky130_fd_sc_hd__nor4b_1
*CAP
1 *1909:D 0.000290904
2 *1793:Y 0.000290904
3 *1909:D *1793:A 5.52238e-05
4 *1909:D *1909:CLK 0.000136958
5 *1909:D *398:6 5.20751e-05
6 *1909:D *398:10 6.86693e-05
*RES
1 *1793:Y *1909:D 24.0643 
*END

*D_NET *342 0.000285084
*CONN
*I *1910:D I *D sky130_fd_sc_hd__dfrtp_4
*I *1794:Y O *D sky130_fd_sc_hd__nor4b_1
*CAP
1 *1910:D 0.000128039
2 *1794:Y 0.000128039
3 *1910:D *1910:CLK 2.90065e-05
*RES
1 *1794:Y *1910:D 20.3679 
*END

*D_NET *343 0.000784419
*CONN
*I *1911:D I *D sky130_fd_sc_hd__dfrtp_4
*I *1795:Y O *D sky130_fd_sc_hd__nor4b_1
*CAP
1 *1911:D 0.000330677
2 *1795:Y 0.000330677
3 *1911:D *1795:A 2.89016e-05
4 *1911:D *1911:CLK 9.41642e-05
*RES
1 *1795:Y *1911:D 23.6536 
*END

*D_NET *344 0.00139884
*CONN
*I *1830:D I *D sky130_fd_sc_hd__dfrtp_4
*I *1716:Y O *D sky130_fd_sc_hd__nor4b_1
*CAP
1 *1830:D 0.000448664
2 *1716:Y 0.000448664
3 *1830:D *1828:CLK 0.00015234
4 *1830:D *365:49 6.17032e-05
5 *1830:D *373:10 0.000177941
6 *1828:D *1830:D 9.37077e-05
7 *1833:D *1830:D 1.58163e-05
*RES
1 *1716:Y *1830:D 35.9036 
*END

*D_NET *345 0.000293713
*CONN
*I *1912:D I *D sky130_fd_sc_hd__dfrtp_4
*I *1796:Y O *D sky130_fd_sc_hd__nor4b_1
*CAP
1 *1912:D 0.000132655
2 *1796:Y 0.000132655
3 *1912:D *1912:CLK 2.84026e-05
*RES
1 *1796:Y *1912:D 20.3679 
*END

*D_NET *346 0.000933249
*CONN
*I *1913:D I *D sky130_fd_sc_hd__dfrtp_4
*I *1797:Y O *D sky130_fd_sc_hd__nor4b_1
*CAP
1 *1913:D 0.000288322
2 *1797:Y 0.000288322
3 *1913:D *1913:CLK 1.33343e-05
4 *1913:D *1914:CLK 0.000147327
5 *1913:D *1914:D 6.09682e-05
6 *1913:D *368:10 5.66157e-05
7 *1913:D *368:12 7.83587e-05
*RES
1 *1797:Y *1913:D 33.5107 
*END

*D_NET *347 0.00114347
*CONN
*I *1914:D I *D sky130_fd_sc_hd__dfrtp_4
*I *1798:Y O *D sky130_fd_sc_hd__nor4b_1
*CAP
1 *1914:D 0.000351359
2 *1798:Y 0.000351359
3 *1914:D *1914:CLK 9.99853e-05
4 *1914:D *388:81 1.46231e-05
5 *1914:D *414:17 0.000265179
6 *1913:D *1914:D 6.09682e-05
*RES
1 *1798:Y *1914:D 24.475 
*END

*D_NET *348 0.000865084
*CONN
*I *1915:D I *D sky130_fd_sc_hd__dfrtp_4
*I *1799:Y O *D sky130_fd_sc_hd__nor4b_1
*CAP
1 *1915:D 0.000236215
2 *1799:Y 0.000236215
3 *1915:D *1797:C 0.000137561
4 *1915:D *1799:B 5.33005e-05
5 *1915:D *1915:CLK 9.71197e-05
6 *1915:D *416:10 4.64978e-05
7 *1915:D *416:74 1.46148e-05
8 *2002:A *1915:D 4.35597e-05
*RES
1 *1799:Y *1915:D 23.6536 
*END

*D_NET *349 0.000277318
*CONN
*I *1916:D I *D sky130_fd_sc_hd__dfrtp_4
*I *1800:Y O *D sky130_fd_sc_hd__nor4b_1
*CAP
1 *1916:D 0.000124458
2 *1800:Y 0.000124458
3 *1916:D *1916:CLK 2.84026e-05
*RES
1 *1800:Y *1916:D 20.3679 
*END

*D_NET *350 0.000441982
*CONN
*I *1917:D I *D sky130_fd_sc_hd__dfrtp_4
*I *1938:LO O *D sky130_fd_sc_hd__conb_1
*CAP
1 *1917:D 0.000220991
2 *1938:LO 0.000220991
*RES
1 *1938:LO *1917:D 30.6 
*END

*D_NET *351 0.000285435
*CONN
*I *1918:D I *D sky130_fd_sc_hd__dfrtp_4
*I *1801:Y O *D sky130_fd_sc_hd__nor4b_1
*CAP
1 *1918:D 0.000106353
2 *1801:Y 0.000106353
3 *1918:D *1918:CLK 7.27282e-05
*RES
1 *1801:Y *1918:D 20.3679 
*END

*D_NET *352 0.000725105
*CONN
*I *1919:D I *D sky130_fd_sc_hd__dfrtp_4
*I *1802:Y O *D sky130_fd_sc_hd__nor4b_1
*CAP
1 *1919:D 0.000349585
2 *1802:Y 0.000349585
3 *1919:D *398:137 2.59355e-05
*RES
1 *1802:Y *1919:D 23.6536 
*END

*D_NET *353 0.000258365
*CONN
*I *1920:D I *D sky130_fd_sc_hd__dfrtp_4
*I *1803:Y O *D sky130_fd_sc_hd__nor4b_1
*CAP
1 *1920:D 0.000114981
2 *1803:Y 0.000114981
3 *1920:D *1920:CLK 2.84026e-05
*RES
1 *1803:Y *1920:D 20.3679 
*END

*D_NET *354 0.000997581
*CONN
*I *1921:D I *D sky130_fd_sc_hd__dfrtp_4
*I *1804:Y O *D sky130_fd_sc_hd__nor4b_1
*CAP
1 *1921:D 0.00021356
2 *1804:Y 0.00021356
3 *1921:D *423:DIODE 0.000183022
4 *1921:D *1804:A 5.33005e-05
5 *1921:D *1921:CLK 9.71197e-05
6 *1921:D *356:130 0.000142856
7 *1921:D *388:168 9.41642e-05
*RES
1 *1804:Y *1921:D 23.6536 
*END

*D_NET *355 0.000679326
*CONN
*I *1831:D I *D sky130_fd_sc_hd__dfrtp_4
*I *1717:Y O *D sky130_fd_sc_hd__nor4b_1
*CAP
1 *1831:D 0.000325212
2 *1717:Y 0.000325212
3 *1831:D *1717:A 2.89016e-05
*RES
1 *1717:Y *1831:D 23.2429 
*END

*D_NET *356 0.0337977
*CONN
*I *424:DIODE I *D sky130_fd_sc_hd__diode_2
*I *1950:A I *D sky130_fd_sc_hd__clkbuf_8
*I *1949:A I *D sky130_fd_sc_hd__clkbuf_8
*I *423:DIODE I *D sky130_fd_sc_hd__diode_2
*I *422:DIODE I *D sky130_fd_sc_hd__diode_2
*I *1948:A I *D sky130_fd_sc_hd__clkbuf_8
*I *421:DIODE I *D sky130_fd_sc_hd__diode_2
*I *1947:A I *D sky130_fd_sc_hd__clkbuf_8
*I *419:DIODE I *D sky130_fd_sc_hd__diode_2
*I *1945:A I *D sky130_fd_sc_hd__clkbuf_8
*I *420:DIODE I *D sky130_fd_sc_hd__diode_2
*I *1946:A I *D sky130_fd_sc_hd__clkbuf_8
*I *417:DIODE I *D sky130_fd_sc_hd__diode_2
*I *1943:A I *D sky130_fd_sc_hd__clkbuf_8
*I *418:DIODE I *D sky130_fd_sc_hd__diode_2
*I *1944:A I *D sky130_fd_sc_hd__clkbuf_8
*I *1942:X O *D sky130_fd_sc_hd__clkbuf_16
*CAP
1 *424:DIODE 8.35887e-05
2 *1950:A 0
3 *1949:A 0.000688227
4 *423:DIODE 0.000125476
5 *422:DIODE 5.67113e-05
6 *1948:A 0
7 *421:DIODE 8.09862e-05
8 *1947:A 7.29816e-05
9 *419:DIODE 0.000106003
10 *1945:A 5.40981e-05
11 *420:DIODE 3.93984e-05
12 *1946:A 9.18417e-05
13 *417:DIODE 0
14 *1943:A 0.000127928
15 *418:DIODE 5.47042e-05
16 *1944:A 0
17 *1942:X 0.000157413
18 *356:158 0.000419174
19 *356:130 0.00188375
20 *356:126 0.00485146
21 *356:112 5.67113e-05
22 *356:110 0.00353998
23 *356:92 0.000153968
24 *356:90 0.00150223
25 *356:70 0.000160102
26 *356:52 0.00013124
27 *356:36 0.000127928
28 *356:22 0.000223652
29 *356:18 0.00314222
30 *356:16 0.00341304
31 *356:12 0.000632082
32 *356:10 0.00160113
33 *356:8 0.00297431
34 *1949:A *1805:B 0.000114693
35 *1949:A *1921:CLK 2.61337e-05
36 *1949:A *414:144 0
37 *356:10 *410:83 0
38 *356:16 *410:70 0.000410594
39 *356:16 *410:83 0
40 *356:18 *410:26 9.62384e-05
41 *356:18 *410:44 0.00139669
42 *356:18 *410:55 4.02462e-05
43 *356:18 *410:70 0.00138635
44 *356:22 *410:26 0.000144872
45 *356:90 *410:101 0.000464759
46 *356:110 *410:101 3.26141e-05
47 *356:126 *410:101 0.000221265
48 *356:126 *410:121 0.000844597
49 *356:126 *410:141 0.000696906
50 *356:130 *1921:RESET_B 0.000117578
51 *356:158 *1917:CLK 0
52 *356:158 *410:141 5.88152e-05
53 busy_o *356:90 0
54 busy_o *356:110 0
55 busy_o *356:126 0
56 mstream_o[100] *356:158 0
57 mstream_o[13] *418:DIODE 0.000141734
58 mstream_o[14] *1943:A 7.32272e-05
59 mstream_o[46] *420:DIODE 2.23592e-05
60 mstream_o[46] *1946:A 5.33334e-05
61 mstream_o[47] *419:DIODE 3.56005e-05
62 mstream_o[57] *356:8 0.000123068
63 mstream_o[69] *422:DIODE 0.000142157
64 mstream_o[97] *356:126 0
65 mstream_o[98] *356:126 0
66 mstream_o[99] *356:130 0.000155508
67 mstream_o[99] *356:158 0
68 *1805:D_N *1949:A 2.0311e-05
69 *1921:D *423:DIODE 0.000183022
70 *1921:D *356:130 0.000142856
71 *1922:D *1949:A 9.98276e-05
72 *3:9 *356:10 0
73 *3:9 *356:12 0
74 *3:9 *356:16 0
75 *3:9 *356:18 0
76 *3:9 *356:22 0
77 *3:9 *356:90 0
*RES
1 *1942:X *356:8 15.9786 
2 *356:8 *356:10 24.4107 
3 *356:10 *356:12 2.55357 
4 *356:12 *356:16 9.08036 
5 *356:16 *356:18 69.4196 
6 *356:18 *356:22 7.96429 
7 *356:22 *1944:A 9.3 
8 *356:22 *418:DIODE 10.6571 
9 *356:18 *356:36 4.5 
10 *356:36 *1943:A 11.0857 
11 *356:36 *417:DIODE 9.3 
12 *356:12 *356:52 4.5 
13 *356:52 *1946:A 10.675 
14 *356:52 *420:DIODE 9.83571 
15 *356:10 *356:70 4.5 
16 *356:70 *1945:A 10.3357 
17 *356:70 *419:DIODE 10.6571 
18 *356:8 *356:90 27.5 
19 *356:90 *356:92 4.5 
20 *356:92 *1947:A 10.2643 
21 *356:92 *421:DIODE 10.2464 
22 *356:90 *356:110 1.64286 
23 *356:110 *356:112 4.5 
24 *356:112 *1948:A 9.3 
25 *356:112 *422:DIODE 10.6571 
26 *356:110 *356:126 72.375 
27 *356:126 *356:130 17.7679 
28 *356:130 *423:DIODE 11.0679 
29 *356:130 *1949:A 27.7643 
30 *356:126 *356:158 10.3214 
31 *356:158 *1950:A 9.3 
32 *356:158 *424:DIODE 10.6571 
*END

*D_NET *357 0.00577786
*CONN
*I *1951:A I *D sky130_fd_sc_hd__clkbuf_16
*I *1958:A I *D sky130_fd_sc_hd__clkbuf_16
*I *1943:X O *D sky130_fd_sc_hd__clkbuf_8
*CAP
1 *1951:A 0
2 *1958:A 0.000273421
3 *1943:X 0.00130858
4 *357:20 0.00116909
5 *357:16 0.00220426
6 *1958:A *365:8 6.61256e-05
7 *1958:A *372:10 5.68713e-05
8 *1958:A *381:90 6.48957e-05
9 *357:16 *401:62 0
10 *357:16 *401:69 0
11 *357:16 *401:76 0
12 *357:16 *401:92 0
13 *357:16 *401:104 0
14 *357:16 *401:118 0
15 *357:16 *401:125 0
16 *357:16 *401:132 0
17 *357:16 *401:139 0
18 *357:16 *401:150 0
19 *357:20 *1826:RESET_B 5.39166e-06
20 *357:20 *365:8 7.92229e-06
21 *357:20 *365:19 0.000106026
22 mstream_o[12] *357:16 4.27493e-05
23 mstream_o[4] *357:20 3.13687e-05
24 mstream_o[7] *357:16 9.09514e-05
25 *2:13 *357:16 0.000350198
*RES
1 *1943:X *357:16 43.6036 
2 *357:16 *357:20 10.4107 
3 *357:20 *1958:A 23.8893 
4 *357:20 *1951:A 9.3 
*END

*D_NET *358 0.00349362
*CONN
*I *1960:A I *D sky130_fd_sc_hd__clkbuf_16
*I *1959:A I *D sky130_fd_sc_hd__clkbuf_16
*I *1944:X O *D sky130_fd_sc_hd__clkbuf_8
*CAP
1 *1960:A 2.23854e-05
2 *1959:A 0.000578004
3 *1944:X 0.000803484
4 *358:6 0.00140387
5 *1959:A *374:8 1.92789e-05
6 *1959:A *382:18 0.000126439
7 *358:6 *1835:CLK 0.000135028
8 *358:6 *374:8 8.81368e-05
9 mstream_o[13] *358:6 9.77414e-05
10 *1722:D_N *1959:A 0.000128146
11 *1835:D *358:6 9.11068e-05
*RES
1 *1944:X *358:6 23.3893 
2 *358:6 *1959:A 27.1036 
3 *358:6 *1960:A 9.72857 
*END

*D_NET *359 0.00605145
*CONN
*I *1961:A I *D sky130_fd_sc_hd__clkbuf_16
*I *1962:A I *D sky130_fd_sc_hd__clkbuf_16
*I *1945:X O *D sky130_fd_sc_hd__clkbuf_8
*CAP
1 *1961:A 0.000535348
2 *1962:A 0.000554496
3 *1945:X 0.000989458
4 *359:8 0.0020793
5 *1961:A *1963:A 0
6 *1961:A *394:157 0.000481949
7 *1962:A *1963:A 0
8 *1962:A *1964:A 0
9 *1962:A *394:157 0.000459419
10 *359:8 *1754:B 4.35679e-05
11 *359:8 *1754:C 5.49489e-05
12 *359:8 *1869:CLK 2.89114e-05
13 *359:8 *1869:RESET_B 4.63768e-05
14 *359:8 *385:52 5.20669e-05
15 mstream_o[47] *359:8 5.33334e-05
16 *1754:D_N *359:8 0.000397873
17 *1869:D *359:8 0.000274398
*RES
1 *1945:X *359:8 33.2286 
2 *359:8 *1962:A 25.7643 
3 *359:8 *1961:A 26.0679 
*END

*D_NET *360 0.00744193
*CONN
*I *1963:A I *D sky130_fd_sc_hd__clkbuf_16
*I *1964:A I *D sky130_fd_sc_hd__clkbuf_16
*I *1946:X O *D sky130_fd_sc_hd__clkbuf_8
*CAP
1 *1963:A 0.000715697
2 *1964:A 0.000802399
3 *1946:X 0.0017614
4 *360:12 0.00327949
5 *1964:A *394:157 0
6 *360:12 *1755:A 0.000223469
7 *360:12 *1755:C 2.8078e-05
8 *360:12 *1868:CLK 3.06878e-06
9 mstream_o[46] *360:12 8.02324e-05
10 *1751:D_N *1964:A 0
11 *1752:D_N *1964:A 0
12 *1754:D_N *1963:A 0
13 *1755:D_N *1963:A 0
14 *1755:D_N *1964:A 0
15 *1755:D_N *360:12 0.000365075
16 *1756:D_N *1963:A 0
17 *1757:D_N *1963:A 0
18 *1758:D_N *1963:A 0
19 *1870:D *360:12 0.000183022
20 *1961:A *1963:A 0
21 *1962:A *1963:A 0
22 *1962:A *1964:A 0
*RES
1 *1946:X *360:12 35.7286 
2 *360:12 *1964:A 27.2107 
3 *360:12 *1963:A 25.8179 
*END

*D_NET *361 0.00644625
*CONN
*I *1965:A I *D sky130_fd_sc_hd__clkbuf_16
*I *1966:A I *D sky130_fd_sc_hd__clkbuf_16
*I *1947:X O *D sky130_fd_sc_hd__clkbuf_8
*CAP
1 *1965:A 0
2 *1966:A 0.00118605
3 *1947:X 0.0016025
4 *361:18 0.00278855
5 *1966:A *390:149 0
6 *1966:A *416:126 0
7 *361:18 *1887:CLK 1.98839e-05
8 *361:18 *1887:RESET_B 4.83516e-05
9 *361:18 *379:8 0.000353908
10 *361:18 *390:14 0.000136676
11 *361:18 *390:149 4.49064e-05
12 *361:18 *396:123 6.57032e-05
13 *361:18 *406:95 0
14 *361:18 *406:119 0
15 *361:18 *410:101 0
16 mstream_o[65] *361:18 1.33343e-05
17 *1764:D_N *1966:A 3.1367e-05
18 *1765:D_N *1966:A 0
19 *1767:D_N *1966:A 0
20 *1768:D_N *1966:A 0
21 *1769:D_N *1966:A 0
22 *1770:D_N *1966:A 4.33002e-05
23 *1771:D_N *1966:A 0
24 *1887:D *361:18 5.04705e-05
25 *1976:A *361:18 6.12434e-05
*RES
1 *1947:X *361:18 46.7464 
2 *361:18 *1966:A 38.925 
3 *361:18 *1965:A 9.3 
*END

*D_NET *362 0.00517452
*CONN
*I *1952:A I *D sky130_fd_sc_hd__clkbuf_16
*I *1953:A I *D sky130_fd_sc_hd__clkbuf_16
*I *1948:X O *D sky130_fd_sc_hd__clkbuf_8
*CAP
1 *1952:A 0.000159614
2 *1953:A 0.000556266
3 *1948:X 0.000752548
4 *362:8 0.00146843
5 *1952:A *1774:A 5.97884e-05
6 *1952:A *396:141 3.17148e-05
7 *1953:A *396:141 0.000173804
8 *1953:A *412:55 1.81709e-05
9 *362:8 *1891:RESET_B 4.83516e-05
10 *362:8 *396:141 5.33005e-05
11 *362:8 *412:53 9.41642e-05
12 mstream_o[69] *362:8 0.00010096
13 *1772:D_N *1953:A 0.000344932
14 *1776:D_N *1952:A 0.000183204
15 *1891:D *362:8 0.000225276
16 *1893:D *1952:A 2.59355e-05
17 *237:14 *1952:A 0.00032363
18 *237:14 *1953:A 0.000554429
*RES
1 *1948:X *362:8 27.4786 
2 *362:8 *1953:A 26.3714 
3 *362:8 *1952:A 18.7107 
*END

*D_NET *363 0.00298444
*CONN
*I *1955:A I *D sky130_fd_sc_hd__clkbuf_16
*I *1954:A I *D sky130_fd_sc_hd__clkbuf_16
*I *1949:X O *D sky130_fd_sc_hd__clkbuf_8
*CAP
1 *1955:A 5.46702e-05
2 *1954:A 0
3 *1949:X 0.000961958
4 *363:16 0.00101663
5 *1955:A *368:8 3.04394e-05
6 *363:16 *1805:B 1.00332e-05
7 *363:16 *368:8 5.75147e-05
8 *363:16 *388:193 5.61499e-05
9 *363:16 *398:141 9.54453e-05
10 *363:16 *398:154 9.31534e-05
11 *363:16 *414:93 0.000218446
12 *363:16 *414:110 0.000115696
13 *363:16 *414:122 7.6997e-05
14 *363:16 *416:39 0
15 *1805:D_N *363:16 0.000164381
16 *237:16 *363:16 3.29318e-05
*RES
1 *1949:X *363:16 36.2821 
2 *363:16 *1954:A 9.3 
3 *363:16 *1955:A 10.2464 
*END

*D_NET *364 0.00398242
*CONN
*I *1956:A I *D sky130_fd_sc_hd__clkbuf_16
*I *1957:A I *D sky130_fd_sc_hd__clkbuf_16
*I *1950:X O *D sky130_fd_sc_hd__clkbuf_8
*CAP
1 *1956:A 0.000808969
2 *1957:A 0
3 *1950:X 0.000705748
4 *364:14 0.00151472
5 *1956:A *1926:CLK 1.39726e-05
6 *1956:A *1926:RESET_B 1.92789e-05
7 *1956:A *371:12 0.000243226
8 *364:14 *1917:CLK 0
9 *364:14 *408:157 0
10 mstream_o[101] *364:14 9.74453e-05
11 mstream_o[104] *1956:A 4.38267e-05
12 mstream_o[104] *364:14 0.0003598
13 *1926:D *1956:A 0.000175433
*RES
1 *1950:X *364:14 31.1929 
2 *364:14 *1957:A 9.3 
3 *364:14 *1956:A 20.55 
*END

*D_NET *365 0.00597958
*CONN
*I *1831:CLK I *D sky130_fd_sc_hd__dfrtp_4
*I *1830:CLK I *D sky130_fd_sc_hd__dfrtp_4
*I *1824:CLK I *D sky130_fd_sc_hd__dfrtp_4
*I *1822:CLK I *D sky130_fd_sc_hd__dfrtp_4
*I *1826:CLK I *D sky130_fd_sc_hd__dfrtp_4
*I *1951:X O *D sky130_fd_sc_hd__clkbuf_16
*CAP
1 *1831:CLK 5.01476e-05
2 *1830:CLK 6.87569e-05
3 *1824:CLK 9.35364e-05
4 *1822:CLK 0.000219653
5 *1826:CLK 0
6 *1951:X 0.000469078
7 *365:49 0.000381897
8 *365:21 0.000431067
9 *365:19 0.00044562
10 *365:8 0.000533829
11 *1822:CLK *1823:CLK 0.000247778
12 *1824:CLK *1713:B 5.38444e-06
13 *1831:CLK *372:36 0.000138946
14 *1831:CLK *373:10 0.000148196
15 *365:21 *1823:CLK 0.000137939
16 *365:21 *372:25 0.000226021
17 *365:49 *1828:CLK 0.00015234
18 *365:49 *372:25 0.000162118
19 *365:49 *372:36 0.000604924
20 *365:49 *373:10 0.000217478
21 *1822:D *1822:CLK 6.8877e-05
22 *1824:D *1822:CLK 0.000424154
23 *1825:D *1824:CLK 3.17128e-05
24 *1826:D *365:21 9.25014e-06
25 *1826:D *365:49 9.91086e-05
26 *1827:D *1822:CLK 3.90513e-05
27 *1827:D *1824:CLK 2.07481e-05
28 *1827:D *365:21 0.000191009
29 *1827:D *365:49 1.31516e-05
30 *1830:D *365:49 6.17032e-05
31 *1833:D *1830:CLK 0.000106026
32 *1958:A *365:8 6.61256e-05
33 *357:20 *365:8 7.92229e-06
34 *357:20 *365:19 0.000106026
*RES
1 *1951:X *365:8 16.3179 
2 *365:8 *1826:CLK 9.3 
3 *365:8 *365:19 5.875 
4 *365:19 *365:21 4.67857 
5 *365:21 *1822:CLK 20.4607 
6 *365:21 *1824:CLK 15.6036 
7 *365:19 *365:49 9.83929 
8 *365:49 *1830:CLK 15.175 
9 *365:49 *1831:CLK 15.7464 
*END

*D_NET *366 0.00772525
*CONN
*I *1904:CLK I *D sky130_fd_sc_hd__dfrtp_4
*I *1902:CLK I *D sky130_fd_sc_hd__dfrtp_4
*I *1900:CLK I *D sky130_fd_sc_hd__dfrtp_4
*I *1899:CLK I *D sky130_fd_sc_hd__dfrtp_4
*I *1898:CLK I *D sky130_fd_sc_hd__dfrtp_4
*I *1894:CLK I *D sky130_fd_sc_hd__dfrtp_4
*I *1952:X O *D sky130_fd_sc_hd__clkbuf_16
*CAP
1 *1904:CLK 0.000220445
2 *1902:CLK 7.29224e-05
3 *1900:CLK 4.7654e-05
4 *1899:CLK 0
5 *1898:CLK 8.20601e-05
6 *1894:CLK 8.78327e-05
7 *1952:X 0.000845763
8 *366:58 0.000499082
9 *366:45 0.000323936
10 *366:36 0.000122557
11 *366:23 0.000380738
12 *366:10 0.00118028
13 *1900:CLK *1784:C 1.17091e-05
14 *1900:CLK *396:194 9.58126e-05
15 *1904:CLK *1788:A 0
16 *1904:CLK *1905:CLK 0.000215056
17 *1904:CLK *367:105 0.000175526
18 *1904:CLK *416:82 0.000248493
19 *366:10 *367:51 0.000173797
20 *366:10 *396:194 4.86923e-05
21 *366:23 *367:51 0.000164561
22 *366:23 *367:62 0.000245356
23 *366:23 *367:77 0.000150625
24 *366:23 *367:88 0.000223599
25 *366:23 *396:194 0.000252722
26 *366:36 *367:88 0.000141382
27 *366:36 *396:194 7.83462e-05
28 *366:45 *367:88 0.00023995
29 *366:45 *396:194 0.000134748
30 *366:58 *367:88 0.000141368
31 *366:58 *367:105 0.000254599
32 *366:58 *396:194 1.52978e-05
33 *366:58 *413:23 0
34 *366:58 *416:112 0
35 *1892:D *1894:CLK 2.07481e-05
36 *1892:D *366:10 7.6644e-05
37 *1893:D *366:10 0.000255002
38 *1894:D *366:10 9.25014e-06
39 *1894:D *366:23 0.000291
40 *1898:D *1898:CLK 4.82865e-05
41 *1900:D *1900:CLK 4.82865e-05
42 *1902:D *1902:CLK 5.28345e-05
43 *1904:D *1904:CLK 4.82865e-05
*RES
1 *1952:X *366:10 25.2107 
2 *366:10 *1894:CLK 15.175 
3 *366:10 *366:23 9.83929 
4 *366:23 *1898:CLK 15.175 
5 *366:23 *366:36 1.94643 
6 *366:36 *1899:CLK 13.8 
7 *366:36 *366:45 3.16071 
8 *366:45 *1900:CLK 15.175 
9 *366:45 *366:58 4.98214 
10 *366:58 *1902:CLK 15.175 
11 *366:58 *1904:CLK 20.1571 
*END

*D_NET *367 0.0089372
*CONN
*I *1905:CLK I *D sky130_fd_sc_hd__dfrtp_4
*I *1903:CLK I *D sky130_fd_sc_hd__dfrtp_4
*I *1901:CLK I *D sky130_fd_sc_hd__dfrtp_4
*I *1897:CLK I *D sky130_fd_sc_hd__dfrtp_4
*I *1896:CLK I *D sky130_fd_sc_hd__dfrtp_4
*I *1895:CLK I *D sky130_fd_sc_hd__dfrtp_4
*I *1892:CLK I *D sky130_fd_sc_hd__dfrtp_4
*I *1889:CLK I *D sky130_fd_sc_hd__dfrtp_4
*I *1887:CLK I *D sky130_fd_sc_hd__dfrtp_4
*I *1953:X O *D sky130_fd_sc_hd__clkbuf_16
*CAP
1 *1905:CLK 0.000190817
2 *1903:CLK 0
3 *1901:CLK 0
4 *1897:CLK 5.36271e-05
5 *1896:CLK 6.55814e-05
6 *1895:CLK 3.39029e-05
7 *1892:CLK 7.0617e-05
8 *1889:CLK 5.98952e-05
9 *1887:CLK 0.00022598
10 *1953:X 9.62746e-05
11 *367:105 0.000491878
12 *367:88 0.000724047
13 *367:77 0.000564646
14 *367:62 0.000310589
15 *367:51 0.000483392
16 *367:36 0.000729353
17 *367:25 0.000513517
18 *367:10 0.000409656
19 *1887:CLK *1886:CLK 3.17148e-05
20 *1887:CLK *379:8 5.33005e-05
21 *1887:CLK *379:25 0.000259271
22 *1887:CLK *412:59 0
23 *1892:CLK *396:194 2.84026e-05
24 *1896:CLK *1778:C 1.17091e-05
25 *1905:CLK *416:76 3.07555e-05
26 *1905:CLK *416:82 4.8936e-05
27 *367:10 *1888:CLK 7.3456e-05
28 *367:25 *379:25 9.25014e-06
29 *367:25 *379:40 0.00013966
30 *367:36 *1774:A 0
31 *367:36 *1893:CLK 0.000259285
32 *367:36 *379:40 0.000223592
33 *367:36 *379:53 0.000141382
34 *367:51 *1893:CLK 0.000129868
35 *367:62 *1776:C 0
36 *367:77 *413:33 0
37 *367:88 *413:31 0
38 *1776:D_N *367:36 0
39 *1776:D_N *367:51 0
40 *1887:D *1887:CLK 0.000100084
41 *1889:D *1889:CLK 4.58194e-05
42 *1892:D *367:51 3.22834e-05
43 *1895:D *1895:CLK 2.59355e-05
44 *1896:D *1896:CLK 2.84026e-05
45 *1897:D *1897:CLK 4.87953e-05
46 *1902:D *367:105 4.58194e-05
47 *1904:CLK *1905:CLK 0.000215056
48 *1904:CLK *367:105 0.000175526
49 *361:18 *1887:CLK 1.98839e-05
50 *366:10 *367:51 0.000173797
51 *366:23 *367:51 0.000164561
52 *366:23 *367:62 0.000245356
53 *366:23 *367:77 0.000150625
54 *366:23 *367:88 0.000223599
55 *366:36 *367:88 0.000141382
56 *366:45 *367:88 0.00023995
57 *366:58 *367:88 0.000141368
58 *366:58 *367:105 0.000254599
*RES
1 *1953:X *367:10 15.175 
2 *367:10 *1887:CLK 18.9429 
3 *367:10 *367:25 1.94643 
4 *367:25 *1889:CLK 14.7464 
5 *367:25 *367:36 8.01786 
6 *367:36 *1892:CLK 15.1929 
7 *367:36 *367:51 6.80357 
8 *367:51 *1895:CLK 14.3357 
9 *367:51 *367:62 3.16071 
10 *367:62 *1896:CLK 15.1929 
11 *367:62 *367:77 1.94643 
12 *367:77 *1897:CLK 14.7464 
13 *367:77 *367:88 9.53571 
14 *367:88 *1901:CLK 13.8 
15 *367:88 *367:105 15.3571 
16 *367:105 *1903:CLK 13.8 
17 *367:105 *1905:CLK 18.4786 
*END

*D_NET *368 0.00772016
*CONN
*I *1919:CLK I *D sky130_fd_sc_hd__dfrtp_4
*I *1918:CLK I *D sky130_fd_sc_hd__dfrtp_4
*I *1914:CLK I *D sky130_fd_sc_hd__dfrtp_4
*I *1913:CLK I *D sky130_fd_sc_hd__dfrtp_4
*I *1910:CLK I *D sky130_fd_sc_hd__dfrtp_4
*I *1907:CLK I *D sky130_fd_sc_hd__dfrtp_4
*I *1954:X O *D sky130_fd_sc_hd__clkbuf_16
*CAP
1 *1919:CLK 0.000114928
2 *1918:CLK 7.05876e-05
3 *1914:CLK 0.000235211
4 *1913:CLK 3.45063e-05
5 *1910:CLK 0.000163182
6 *1907:CLK 0.000258974
7 *1954:X 0.000875708
8 *368:58 0.000261321
9 *368:14 0.000733872
10 *368:12 0.000425937
11 *368:10 0.000691945
12 *368:8 0.00132853
13 *1907:CLK *416:74 0.000509472
14 *1914:CLK *388:81 3.15375e-05
15 *1919:CLK *369:95 9.88328e-05
16 *368:8 *369:8 9.20581e-06
17 *368:10 *369:10 0.000103275
18 *368:10 *369:12 7.83366e-05
19 *368:10 *369:14 2.49484e-05
20 *368:10 *369:95 7.17189e-05
21 *368:10 *416:74 0.000187026
22 *368:12 *416:74 0.00014279
23 *368:14 *416:74 0.000622283
24 *368:58 *369:95 6.07232e-05
25 *1910:D *1910:CLK 2.90065e-05
26 *1913:D *1913:CLK 1.33343e-05
27 *1913:D *1914:CLK 0.000147327
28 *1913:D *368:10 5.66157e-05
29 *1913:D *368:12 7.83587e-05
30 *1914:D *1914:CLK 9.99853e-05
31 *1918:D *1918:CLK 7.27282e-05
32 *1955:A *368:8 3.04394e-05
33 *363:16 *368:8 5.75147e-05
*RES
1 *1954:X *368:8 23.3714 
2 *368:8 *368:10 8.92857 
3 *368:10 *368:12 1.94643 
4 *368:12 *368:14 8.01786 
5 *368:14 *1907:CLK 20.3 
6 *368:14 *1910:CLK 15.8893 
7 *368:12 *1913:CLK 14.3357 
8 *368:10 *1914:CLK 17.9607 
9 *368:8 *368:58 1.64286 
10 *368:58 *1918:CLK 15.1571 
11 *368:58 *1919:CLK 16.3536 
*END

*D_NET *369 0.00807918
*CONN
*I *1921:CLK I *D sky130_fd_sc_hd__dfrtp_4
*I *1920:CLK I *D sky130_fd_sc_hd__dfrtp_4
*I *1916:CLK I *D sky130_fd_sc_hd__dfrtp_4
*I *1915:CLK I *D sky130_fd_sc_hd__dfrtp_4
*I *1912:CLK I *D sky130_fd_sc_hd__dfrtp_4
*I *1911:CLK I *D sky130_fd_sc_hd__dfrtp_4
*I *1909:CLK I *D sky130_fd_sc_hd__dfrtp_4
*I *1908:CLK I *D sky130_fd_sc_hd__dfrtp_4
*I *1906:CLK I *D sky130_fd_sc_hd__dfrtp_4
*I *1955:X O *D sky130_fd_sc_hd__clkbuf_16
*CAP
1 *1921:CLK 0.000242531
2 *1920:CLK 6.93826e-05
3 *1916:CLK 6.87704e-05
4 *1915:CLK 3.9665e-05
5 *1912:CLK 6.87704e-05
6 *1911:CLK 5.16538e-05
7 *1909:CLK 7.18395e-05
8 *1908:CLK 6.88208e-05
9 *1906:CLK 0.000233178
10 *1955:X 0.000345972
11 *369:95 0.000698296
12 *369:20 0.000451202
13 *369:18 0.000437095
14 *369:16 0.000353017
15 *369:14 0.000505268
16 *369:12 0.000486006
17 *369:10 0.000303789
18 *369:8 0.000872219
19 *1906:CLK *412:23 0
20 *1906:CLK *416:74 0.000135683
21 *1906:CLK *416:76 0.000161022
22 *1906:CLK *416:240 1.10627e-05
23 *1915:CLK *416:74 2.59355e-05
24 *1920:CLK *1803:A 0
25 *369:10 *388:102 0
26 *369:14 *414:21 0
27 *369:14 *416:74 0.000579309
28 *369:16 *416:74 0.000153054
29 *369:18 *416:74 0.000385717
30 *369:20 *416:74 0.000247778
31 *369:95 *388:134 0
32 *1792:D_N *369:20 0
33 *1908:D *1908:CLK 2.84026e-05
34 *1909:D *1909:CLK 0.000136958
35 *1911:D *1911:CLK 9.41642e-05
36 *1912:D *1912:CLK 2.84026e-05
37 *1915:D *1915:CLK 9.71197e-05
38 *1916:D *1916:CLK 2.84026e-05
39 *1919:CLK *369:95 9.88328e-05
40 *1920:D *1920:CLK 2.84026e-05
41 *1921:D *1921:CLK 9.71197e-05
42 *1949:A *1921:CLK 2.61337e-05
43 *237:16 *1906:CLK 0
44 *237:16 *369:20 0
45 *368:8 *369:8 9.20581e-06
46 *368:10 *369:10 0.000103275
47 *368:10 *369:12 7.83366e-05
48 *368:10 *369:14 2.49484e-05
49 *368:10 *369:95 7.17189e-05
50 *368:58 *369:95 6.07232e-05
*RES
1 *1955:X *369:8 17.6214 
2 *369:8 *369:10 2.55357 
3 *369:10 *369:12 1.94643 
4 *369:12 *369:14 8.01786 
5 *369:14 *369:16 1.94643 
6 *369:16 *369:18 4.98214 
7 *369:18 *369:20 3.16071 
8 *369:20 *1906:CLK 18.5321 
9 *369:20 *1908:CLK 15.0679 
10 *369:18 *1909:CLK 15.1571 
11 *369:16 *1911:CLK 14.7464 
12 *369:14 *1912:CLK 15.0679 
13 *369:12 *1915:CLK 14.7464 
14 *369:10 *1916:CLK 15.0679 
15 *369:8 *369:95 7.41071 
16 *369:95 *1920:CLK 15.0679 
17 *369:95 *1921:CLK 17.9071 
*END

*D_NET *370 0.00731556
*CONN
*I *1935:CLK I *D sky130_fd_sc_hd__dfrtp_4
*I *1934:CLK I *D sky130_fd_sc_hd__dfrtp_4
*I *1933:CLK I *D sky130_fd_sc_hd__dfrtp_4
*I *1932:CLK I *D sky130_fd_sc_hd__dfrtp_4
*I *1936:CLK I *D sky130_fd_sc_hd__dfrtp_4
*I *1931:CLK I *D sky130_fd_sc_hd__dfrtp_4
*I *1925:CLK I *D sky130_fd_sc_hd__dfrtp_4
*I *1924:CLK I *D sky130_fd_sc_hd__dfrtp_4
*I *1923:CLK I *D sky130_fd_sc_hd__dfrtp_4
*I *1922:CLK I *D sky130_fd_sc_hd__dfrtp_4
*I *1956:X O *D sky130_fd_sc_hd__clkbuf_16
*CAP
1 *1935:CLK 0.000145362
2 *1934:CLK 0
3 *1933:CLK 6.73492e-05
4 *1932:CLK 4.4048e-05
5 *1936:CLK 7.0703e-05
6 *1931:CLK 2.22008e-05
7 *1925:CLK 6.04611e-05
8 *1924:CLK 7.06527e-05
9 *1923:CLK 4.32338e-05
10 *1922:CLK 0.000210612
11 *1956:X 0.000488604
12 *370:116 0.000256754
13 *370:101 0.000384874
14 *370:90 0.000368797
15 *370:75 0.00040011
16 *370:64 0.000931492
17 *370:16 0.000477592
18 *370:14 0.000409094
19 *370:12 0.000277305
20 *370:10 0.00128925
21 *1933:CLK *1816:B 5.38444e-06
22 *1935:CLK *1820:C 0
23 *1936:CLK *1819:A 0
24 *370:10 *1926:CLK 5.49489e-05
25 *370:12 *399:55 0
26 *370:14 *456:DIODE 2.00123e-05
27 *370:14 *399:36 0
28 *370:16 *456:DIODE 1.00477e-05
29 *370:16 *1805:C 0
30 *370:64 *371:23 6.63569e-05
31 *370:64 *371:32 5.16396e-05
32 *370:64 *371:45 3.50931e-05
33 *370:64 *399:107 0
34 *370:75 *399:126 0
35 *1809:D_N *370:64 0
36 *1816:D_N *370:90 0
37 *1816:D_N *370:101 0
38 *1821:A *1931:CLK 9.90431e-05
39 *1922:D *1922:CLK 3.13687e-05
40 *1923:D *1923:CLK 5.97284e-05
41 *1924:D *1924:CLK 2.84026e-05
42 *1925:D *1925:CLK 7.77751e-05
43 *1926:D *370:10 0.000114553
44 *1928:D *370:64 0.000392283
45 *1931:D *1931:CLK 3.67257e-05
46 *1932:D *1932:CLK 5.33433e-05
47 *1933:D *1933:CLK 2.84026e-05
48 *1934:D *1933:CLK 3.41517e-06
49 *1935:D *1935:CLK 7.83659e-05
50 *1936:D *1936:CLK 2.84026e-05
51 *1937:D *1935:CLK 2.1768e-05
52 *237:16 *1935:CLK 0
53 *237:16 *370:64 0
54 *237:16 *370:101 0
55 *237:16 *370:116 0
*RES
1 *1956:X *370:10 20.925 
2 *370:10 *370:12 1.64286 
3 *370:12 *370:14 1.94643 
4 *370:14 *370:16 3.16071 
5 *370:16 *1922:CLK 17.1393 
6 *370:16 *1923:CLK 14.7464 
7 *370:14 *1924:CLK 15.1929 
8 *370:12 *1925:CLK 15.1571 
9 *370:10 *370:64 13.1786 
10 *370:64 *1931:CLK 14.7464 
11 *370:64 *370:75 3.16071 
12 *370:75 *1936:CLK 15.1929 
13 *370:75 *370:90 1.94643 
14 *370:90 *1932:CLK 14.7464 
15 *370:90 *370:101 3.16071 
16 *370:101 *1933:CLK 15.1929 
17 *370:101 *370:116 1.94643 
18 *370:116 *1934:CLK 13.8 
19 *370:116 *1935:CLK 16.7107 
*END

*D_NET *371 0.0102534
*CONN
*I *1917:CLK I *D sky130_fd_sc_hd__dfrtp_4
*I *1937:CLK I *D sky130_fd_sc_hd__dfrtp_4
*I *1930:CLK I *D sky130_fd_sc_hd__dfrtp_4
*I *1929:CLK I *D sky130_fd_sc_hd__dfrtp_4
*I *1928:CLK I *D sky130_fd_sc_hd__dfrtp_4
*I *1927:CLK I *D sky130_fd_sc_hd__dfrtp_4
*I *1926:CLK I *D sky130_fd_sc_hd__dfrtp_4
*I *1957:X O *D sky130_fd_sc_hd__clkbuf_16
*CAP
1 *1917:CLK 0.000856807
2 *1937:CLK 0.00132043
3 *1930:CLK 0.000199953
4 *1929:CLK 0
5 *1928:CLK 0.000191235
6 *1927:CLK 0
7 *1926:CLK 7.19226e-05
8 *1957:X 0.000271713
9 *371:56 0.00160267
10 *371:45 0.000214603
11 *371:32 0.000410061
12 *371:23 0.000214971
13 *371:12 0.000667224
14 *371:6 0.00159536
15 *1917:CLK *1919:RESET_B 0
16 *1917:CLK *408:135 0.000207278
17 *1917:CLK *408:157 0.000508814
18 *1917:CLK *410:141 0
19 *1928:CLK *399:74 1.17091e-05
20 *1937:CLK *1930:RESET_B 5.52238e-05
21 *1937:CLK *1935:RESET_B 0
22 *1937:CLK *408:157 0.000455701
23 *1937:CLK *409:104 0
24 *1937:CLK *409:116 0
25 *1937:CLK *409:128 0
26 *1937:CLK *409:140 0
27 *371:12 *1926:RESET_B 6.5647e-05
28 mstream_o[101] *1917:CLK 0
29 mstream_o[104] *371:6 0.000312451
30 mstream_o[104] *371:12 7.27282e-05
31 mstream_o[108] *1937:CLK 2.51343e-06
32 mstream_o[112] *1937:CLK 2.27416e-05
33 mstream_o[114] *1937:CLK 0.000166541
34 mstream_o[96] *1917:CLK 5.7836e-06
35 *1821:B *1937:CLK 5.79582e-06
36 *1926:D *1926:CLK 8.16977e-05
37 *1928:D *1928:CLK 1.72894e-05
38 *1928:D *1930:CLK 2.07481e-05
39 *1928:D *371:45 7.83462e-05
40 *1928:D *371:56 7.57773e-05
41 *1930:D *1930:CLK 4.46231e-06
42 *1956:A *1926:CLK 1.39726e-05
43 *1956:A *371:12 0.000243226
44 *356:158 *1917:CLK 0
45 *364:14 *1917:CLK 0
46 *370:10 *1926:CLK 5.49489e-05
47 *370:64 *371:23 6.63569e-05
48 *370:64 *371:32 5.16396e-05
49 *370:64 *371:45 3.50931e-05
*RES
1 *1957:X *371:6 14.7643 
2 *371:6 *371:12 9.30357 
3 *371:12 *1926:CLK 11.0679 
4 *371:12 *371:23 7.05357 
5 *371:23 *1927:CLK 13.8 
6 *371:23 *371:32 1.94643 
7 *371:32 *1928:CLK 16.3 
8 *371:32 *371:45 3.16071 
9 *371:45 *1929:CLK 13.8 
10 *371:45 *371:56 6.44643 
11 *371:56 *1930:CLK 11.8 
12 *371:56 *1937:CLK 40.0679 
13 *371:6 *1917:CLK 37.2464 
*END

*D_NET *372 0.00887793
*CONN
*I *1825:CLK I *D sky130_fd_sc_hd__dfrtp_4
*I *1837:CLK I *D sky130_fd_sc_hd__dfrtp_4
*I *1835:CLK I *D sky130_fd_sc_hd__dfrtp_4
*I *1834:CLK I *D sky130_fd_sc_hd__dfrtp_4
*I *1833:CLK I *D sky130_fd_sc_hd__dfrtp_4
*I *1827:CLK I *D sky130_fd_sc_hd__dfrtp_4
*I *1823:CLK I *D sky130_fd_sc_hd__dfrtp_4
*I *1958:X O *D sky130_fd_sc_hd__clkbuf_16
*CAP
1 *1825:CLK 5.4856e-05
2 *1837:CLK 0.000284213
3 *1835:CLK 4.29478e-05
4 *1834:CLK 6.84378e-05
5 *1833:CLK 0.000108169
6 *1827:CLK 8.78148e-05
7 *1823:CLK 0.000288064
8 *1958:X 0.000652569
9 *372:60 0.000430237
10 *372:47 0.000249757
11 *372:36 0.000857563
12 *372:25 0.00100624
13 *372:12 0.000535341
14 *372:10 0.000707425
15 *1823:CLK *381:90 0
16 *1837:CLK *374:23 0.000246057
17 *1837:CLK *374:36 0.00014209
18 *1837:CLK *382:18 0
19 *372:25 *381:90 0
20 *372:36 *1832:CLK 0.000148903
21 *372:36 *373:10 0.000124479
22 *372:36 *381:90 0
23 *372:47 *1832:CLK 0.000153054
24 *372:60 *1832:CLK 0.000197984
25 *372:60 *374:23 4.49293e-05
26 *372:60 *382:18 0
27 *1822:CLK *1823:CLK 0.000247778
28 *1823:D *1823:CLK 2.89016e-05
29 *1825:D *1823:CLK 7.54868e-05
30 *1825:D *1825:CLK 2.77258e-05
31 *1825:D *372:10 5.33005e-05
32 *1826:D *1827:CLK 2.79421e-05
33 *1827:D *1827:CLK 6.05161e-06
34 *1831:CLK *372:36 0.000138946
35 *1835:D *1834:CLK 6.05161e-06
36 *1835:D *1835:CLK 0.000135028
37 *1835:D *372:47 8.6229e-06
38 *1835:D *372:60 0.00020517
39 *1836:D *1834:CLK 2.59355e-05
40 *1837:D *1837:CLK 0.000136958
41 *1958:A *372:10 5.68713e-05
42 *358:6 *1835:CLK 0.000135028
43 *365:21 *1823:CLK 0.000137939
44 *365:21 *372:25 0.000226021
45 *365:49 *372:25 0.000162118
46 *365:49 *372:36 0.000604924
*RES
1 *1958:X *372:10 19.2107 
2 *372:10 *372:12 4.5 
3 *372:12 *1823:CLK 19.3179 
4 *372:12 *372:25 4.98214 
5 *372:25 *1827:CLK 15.1571 
6 *372:25 *372:36 14.3929 
7 *372:36 *1833:CLK 15.1571 
8 *372:36 *372:47 1.94643 
9 *372:47 *1834:CLK 15.0679 
10 *372:47 *372:60 3.16071 
11 *372:60 *1835:CLK 15.1571 
12 *372:60 *1837:CLK 20.1393 
13 *372:10 *1825:CLK 10.2464 
*END

*D_NET *373 0.0105316
*CONN
*I *1850:CLK I *D sky130_fd_sc_hd__dfrtp_4
*I *1848:CLK I *D sky130_fd_sc_hd__dfrtp_4
*I *1845:CLK I *D sky130_fd_sc_hd__dfrtp_4
*I *1841:CLK I *D sky130_fd_sc_hd__dfrtp_4
*I *1840:CLK I *D sky130_fd_sc_hd__dfrtp_4
*I *1839:CLK I *D sky130_fd_sc_hd__dfrtp_4
*I *1829:CLK I *D sky130_fd_sc_hd__dfrtp_4
*I *1828:CLK I *D sky130_fd_sc_hd__dfrtp_4
*I *1959:X O *D sky130_fd_sc_hd__clkbuf_16
*CAP
1 *1850:CLK 0.000276148
2 *1848:CLK 6.55814e-05
3 *1845:CLK 0
4 *1841:CLK 7.60064e-05
5 *1840:CLK 0.000153644
6 *1839:CLK 0
7 *1829:CLK 0
8 *1828:CLK 0.00016413
9 *1959:X 0.000269051
10 *373:84 0.00083929
11 *373:71 0.000927646
12 *373:56 0.00061055
13 *373:43 0.000333663
14 *373:34 0.000368547
15 *373:10 0.000580577
16 *373:8 0.000978484
17 *1828:CLK *1716:C 1.17091e-05
18 *1848:CLK *1734:C 1.17091e-05
19 *1850:CLK *1851:CLK 7.58189e-05
20 *1850:CLK *374:110 3.47737e-05
21 *1850:CLK *381:18 0
22 *373:8 *1836:CLK 2.07481e-05
23 *373:10 *1832:CLK 0.000482863
24 *373:10 *374:23 0.000193833
25 *373:34 *374:23 9.71532e-05
26 *373:34 *374:36 0.000388153
27 *373:34 *374:49 0.000150618
28 *373:43 *374:49 0.00014279
29 *373:56 *374:49 0.00019117
30 *373:71 *374:49 0.000284894
31 *373:71 *374:62 0.000150632
32 *373:71 *374:73 0.000250201
33 *373:71 *374:88 0.000150632
34 *373:84 *374:88 8.41744e-05
35 *373:84 *374:101 8.67877e-05
36 *373:84 *374:110 9.45762e-05
37 *1828:D *1828:CLK 7.11463e-05
38 *1830:D *1828:CLK 0.00015234
39 *1830:D *373:10 0.000177941
40 *1831:CLK *373:10 0.000148196
41 *1833:D *373:10 0.000147532
42 *1834:D *373:10 0.000318316
43 *1836:D *373:8 6.05161e-06
44 *1836:D *373:10 0.000288564
45 *1836:D *373:34 5.66157e-05
46 *1839:D *373:34 3.5707e-05
47 *1840:D *1840:CLK 3.40033e-05
48 *1841:D *1841:CLK 2.59355e-05
49 *1848:D *1848:CLK 2.84026e-05
50 *365:49 *1828:CLK 0.00015234
51 *365:49 *373:10 0.000217478
52 *372:36 *373:10 0.000124479
*RES
1 *1959:X *373:8 16.8 
2 *373:8 *373:10 16.2143 
3 *373:10 *1828:CLK 17.9607 
4 *373:10 *1829:CLK 13.8 
5 *373:8 *373:34 8.01786 
6 *373:34 *1839:CLK 13.8 
7 *373:34 *373:43 1.94643 
8 *373:43 *1840:CLK 15.8893 
9 *373:43 *373:56 2.55357 
10 *373:56 *1841:CLK 15.1929 
11 *373:56 *373:71 10.4464 
12 *373:71 *1845:CLK 13.8 
13 *373:71 *373:84 9.39286 
14 *373:84 *1848:CLK 15.1929 
15 *373:84 *1850:CLK 18.5321 
*END

*D_NET *374 0.0118257
*CONN
*I *1851:CLK I *D sky130_fd_sc_hd__dfrtp_4
*I *1849:CLK I *D sky130_fd_sc_hd__dfrtp_4
*I *1847:CLK I *D sky130_fd_sc_hd__dfrtp_4
*I *1846:CLK I *D sky130_fd_sc_hd__dfrtp_4
*I *1844:CLK I *D sky130_fd_sc_hd__dfrtp_4
*I *1843:CLK I *D sky130_fd_sc_hd__dfrtp_4
*I *1842:CLK I *D sky130_fd_sc_hd__dfrtp_4
*I *1838:CLK I *D sky130_fd_sc_hd__dfrtp_4
*I *1836:CLK I *D sky130_fd_sc_hd__dfrtp_4
*I *1832:CLK I *D sky130_fd_sc_hd__dfrtp_4
*I *1960:X O *D sky130_fd_sc_hd__clkbuf_16
*CAP
1 *1851:CLK 0.000238351
2 *1849:CLK 3.23216e-05
3 *1847:CLK 0
4 *1846:CLK 0.000187343
5 *1844:CLK 6.78868e-05
6 *1843:CLK 0
7 *1842:CLK 6.7117e-05
8 *1838:CLK 3.70928e-05
9 *1836:CLK 8.78327e-05
10 *1832:CLK 0.00018708
11 *1960:X 0.000785875
12 *374:110 0.00041832
13 *374:101 0.000286155
14 *374:88 0.000556616
15 *374:73 0.000422674
16 *374:62 0.000203401
17 *374:49 0.000602447
18 *374:36 0.000674726
19 *374:23 0.000360124
20 *374:8 0.00106356
21 *1832:CLK *1720:C 8.29398e-06
22 *1838:CLK *1725:C 8.29398e-06
23 *1842:CLK *1728:C 8.29398e-06
24 *1844:CLK *1730:C 1.17091e-05
25 *1849:CLK *1968:A 0.000138769
26 *1851:CLK *390:37 0.00043112
27 *1851:CLK *390:43 9.25014e-06
28 *374:36 *382:18 0
29 *374:49 *382:18 0
30 *374:110 *390:43 0.000293408
31 *1832:D *1832:CLK 5.12625e-05
32 *1834:D *1832:CLK 0.000106026
33 *1835:D *374:8 9.41642e-05
34 *1837:CLK *374:23 0.000246057
35 *1837:CLK *374:36 0.00014209
36 *1838:D *1838:CLK 5.28345e-05
37 *1839:D *1838:CLK 0.000108975
38 *1842:D *1842:CLK 6.30476e-05
39 *1844:D *1844:CLK 5.28345e-05
40 *1844:D *374:88 1.98839e-05
41 *1846:D *1846:CLK 3.7273e-05
42 *1849:D *1849:CLK 5.33334e-05
43 *1850:CLK *1851:CLK 7.58189e-05
44 *1850:CLK *374:110 3.47737e-05
45 *1851:D *1851:CLK 7.77652e-05
46 *1959:A *374:8 1.92789e-05
47 *358:6 *374:8 8.81368e-05
48 *372:36 *1832:CLK 0.000148903
49 *372:47 *1832:CLK 0.000153054
50 *372:60 *1832:CLK 0.000197984
51 *372:60 *374:23 4.49293e-05
52 *373:8 *1836:CLK 2.07481e-05
53 *373:10 *1832:CLK 0.000482863
54 *373:10 *374:23 0.000193833
55 *373:34 *374:23 9.71532e-05
56 *373:34 *374:36 0.000388153
57 *373:34 *374:49 0.000150618
58 *373:43 *374:49 0.00014279
59 *373:56 *374:49 0.00019117
60 *373:71 *374:49 0.000284894
61 *373:71 *374:62 0.000150632
62 *373:71 *374:73 0.000250201
63 *373:71 *374:88 0.000150632
64 *373:84 *374:88 8.41744e-05
65 *373:84 *374:101 8.67877e-05
66 *373:84 *374:110 9.45762e-05
*RES
1 *1960:X *374:8 22.9607 
2 *374:8 *1832:CLK 21.3714 
3 *374:8 *374:23 3.76786 
4 *374:23 *1836:CLK 15.175 
5 *374:23 *374:36 4.98214 
6 *374:36 *1838:CLK 15.175 
7 *374:36 *374:49 9.83929 
8 *374:49 *1842:CLK 15.175 
9 *374:49 *374:62 1.94643 
10 *374:62 *1843:CLK 13.8 
11 *374:62 *374:73 7.66071 
12 *374:73 *1844:CLK 10.675 
13 *374:73 *374:88 9.21429 
14 *374:88 *1846:CLK 16.3 
15 *374:88 *374:101 3.16071 
16 *374:101 *1847:CLK 13.8 
17 *374:101 *374:110 4.67857 
18 *374:110 *1849:CLK 15.175 
19 *374:110 *1851:CLK 20.7464 
*END

*D_NET *375 0.0048732
*CONN
*I *1879:CLK I *D sky130_fd_sc_hd__dfrtp_4
*I *1873:CLK I *D sky130_fd_sc_hd__dfrtp_4
*I *1872:CLK I *D sky130_fd_sc_hd__dfrtp_4
*I *1871:CLK I *D sky130_fd_sc_hd__dfrtp_4
*I *1870:CLK I *D sky130_fd_sc_hd__dfrtp_4
*I *1961:X O *D sky130_fd_sc_hd__clkbuf_16
*CAP
1 *1879:CLK 0.000409473
2 *1873:CLK 0
3 *1872:CLK 0.000129418
4 *1871:CLK 0
5 *1870:CLK 0.000169774
6 *1961:X 0.000178203
7 *375:16 0.000241707
8 *375:14 0.000249356
9 *375:12 0.000128442
10 *375:10 0.000668113
11 *1870:CLK *1757:C 8.29398e-06
12 *1870:CLK *390:37 0.00015234
13 *1872:CLK *1759:C 8.29398e-06
14 *1879:CLK *377:49 3.84385e-05
15 *1879:CLK *377:60 5.26184e-05
16 *1879:CLK *377:73 6.66939e-05
17 *1879:CLK *390:16 4.46186e-06
18 *1879:CLK *390:20 0.000232216
19 *1879:CLK *390:33 0.000358853
20 *1879:CLK *390:35 0.00010326
21 *375:10 *1874:CLK 2.84026e-05
22 *375:12 *377:49 2.60251e-05
23 *375:12 *390:35 0.000251915
24 *375:14 *390:35 7.15449e-05
25 *375:14 *390:37 7.83587e-05
26 *375:16 *377:12 2.18733e-05
27 *375:16 *390:37 0.000251915
28 *1872:D *1870:CLK 0.000302394
29 *1872:D *375:16 0.000169405
30 *1873:D *1872:CLK 3.69047e-06
31 *1874:D *1872:CLK 0.00015012
32 *1874:D *375:12 0.000169405
33 *1874:D *375:14 0.000138939
34 *1874:D *375:16 9.25014e-06
*RES
1 *1961:X *375:10 16.4071 
2 *375:10 *375:12 3.16071 
3 *375:12 *375:14 1.94643 
4 *375:14 *375:16 3.16071 
5 *375:16 *1870:CLK 18.3714 
6 *375:16 *1871:CLK 13.8 
7 *375:14 *1872:CLK 16.425 
8 *375:12 *1873:CLK 13.8 
9 *375:10 *1879:CLK 25.1571 
*END

*D_NET *376 0.00965609
*CONN
*I *1869:CLK I *D sky130_fd_sc_hd__dfrtp_4
*I *1868:CLK I *D sky130_fd_sc_hd__dfrtp_4
*I *1867:CLK I *D sky130_fd_sc_hd__dfrtp_4
*I *1866:CLK I *D sky130_fd_sc_hd__dfrtp_4
*I *1863:CLK I *D sky130_fd_sc_hd__dfrtp_4
*I *1853:CLK I *D sky130_fd_sc_hd__dfrtp_4
*I *1857:CLK I *D sky130_fd_sc_hd__dfrtp_4
*I *1962:X O *D sky130_fd_sc_hd__clkbuf_16
*CAP
1 *1869:CLK 0.000134376
2 *1868:CLK 0.000194701
3 *1867:CLK 1.99857e-05
4 *1866:CLK 0.000148561
5 *1863:CLK 0
6 *1853:CLK 0.000938698
7 *1857:CLK 0
8 *1962:X 0.000307939
9 *376:71 0.000398248
10 *376:49 0.00021875
11 *376:43 0.000323608
12 *376:14 0.00125505
13 *376:10 0.00035555
14 *376:8 0.000551373
15 *1853:CLK *1857:RESET_B 5.01883e-05
16 *1853:CLK *404:32 0
17 *1853:CLK *404:44 0
18 *1853:CLK *404:56 0
19 *1853:CLK *404:68 0
20 *1853:CLK *404:80 0
21 *1866:CLK *1753:C 4.62179e-05
22 *1866:CLK *377:12 0.000147582
23 *1869:CLK *377:12 1.50087e-05
24 *1869:CLK *390:37 0.000200413
25 *376:10 *390:37 0.00015304
26 *376:14 *378:18 2.28335e-05
27 *376:14 *378:20 2.6949e-05
28 *376:14 *378:22 1.41231e-05
29 *376:14 *378:35 1.50563e-05
30 *376:14 *390:37 0.00114218
31 *376:43 *1864:CLK 2.31704e-05
32 *376:43 *377:12 8.77116e-05
33 *376:43 *390:37 0.000589019
34 *376:71 *390:37 0.000197984
35 *1857:D *1853:CLK 7.56926e-05
36 *1858:D *376:14 0.000179656
37 *1860:D *376:14 0.000320031
38 *1863:D *376:14 0.000149671
39 *1864:D *376:10 0.00014279
40 *1864:D *376:14 0.000150632
41 *1864:D *376:43 4.90803e-05
42 *1867:D *1866:CLK 7.02611e-05
43 *1867:D *376:49 2.59355e-05
44 *1868:D *1869:CLK 4.90803e-05
45 *1868:D *376:43 0.000103267
46 *1868:D *376:71 0.000187733
47 *1870:D *1868:CLK 3.40142e-05
48 *1870:D *1869:CLK 0.000100831
49 *2:13 *1853:CLK 0.000407127
50 *359:8 *1869:CLK 2.89114e-05
51 *360:12 *1868:CLK 3.06878e-06
*RES
1 *1962:X *376:8 17.2107 
2 *376:8 *376:10 1.94643 
3 *376:10 *376:14 18.8929 
4 *376:14 *1857:CLK 9.3 
5 *376:14 *1853:CLK 37.0143 
6 *376:10 *1863:CLK 13.8 
7 *376:8 *376:43 7.41071 
8 *376:43 *376:49 5.46429 
9 *376:49 *1866:CLK 21.6036 
10 *376:49 *1867:CLK 9.72857 
11 *376:43 *376:71 2.55357 
12 *376:71 *1868:CLK 16.3 
13 *376:71 *1869:CLK 17.7464 
*END

*D_NET *377 0.00629195
*CONN
*I *1878:CLK I *D sky130_fd_sc_hd__dfrtp_4
*I *1877:CLK I *D sky130_fd_sc_hd__dfrtp_4
*I *1876:CLK I *D sky130_fd_sc_hd__dfrtp_4
*I *1875:CLK I *D sky130_fd_sc_hd__dfrtp_4
*I *1874:CLK I *D sky130_fd_sc_hd__dfrtp_4
*I *1865:CLK I *D sky130_fd_sc_hd__dfrtp_4
*I *1864:CLK I *D sky130_fd_sc_hd__dfrtp_4
*I *1963:X O *D sky130_fd_sc_hd__clkbuf_16
*CAP
1 *1878:CLK 0.000135079
2 *1877:CLK 0
3 *1876:CLK 6.63588e-05
4 *1875:CLK 1.16062e-05
5 *1874:CLK 6.88208e-05
6 *1865:CLK 2.3671e-05
7 *1864:CLK 0.000175057
8 *1963:X 0.000291898
9 *377:73 0.000289453
10 *377:60 0.00032346
11 *377:49 0.000290973
12 *377:36 0.000352001
13 *377:12 0.00108139
14 *377:10 0.0012811
15 *1875:CLK *1971:A 5.52302e-05
16 *1878:CLK *384:20 0
17 *1878:CLK *390:20 0.000154762
18 *377:12 *384:34 0
19 *377:12 *385:29 0
20 *377:12 *385:31 0
21 *377:12 *385:37 0
22 *377:12 *390:37 0
23 *377:73 *384:20 0
24 *377:73 *384:34 0
25 *377:73 *390:20 5.59013e-05
26 *1865:D *1865:CLK 5.52302e-05
27 *1866:CLK *377:12 0.000147582
28 *1868:D *377:12 0.000178121
29 *1869:CLK *377:12 1.50087e-05
30 *1870:D *377:12 0.000178101
31 *1872:D *377:12 0.000170532
32 *1873:D *377:10 5.33005e-05
33 *1873:D *377:12 0.000168334
34 *1873:D *377:36 2.21254e-05
35 *1874:D *377:12 3.69697e-05
36 *1874:D *377:36 0.000106542
37 *1874:D *377:49 3.17067e-05
38 *1875:D *1875:CLK 5.52302e-05
39 *1876:D *1876:CLK 2.84026e-05
40 *1878:D *1878:CLK 4.30778e-05
41 *1879:CLK *377:49 3.84385e-05
42 *1879:CLK *377:60 5.26184e-05
43 *1879:CLK *377:73 6.66939e-05
44 *375:10 *1874:CLK 2.84026e-05
45 *375:12 *377:49 2.60251e-05
46 *375:16 *377:12 2.18733e-05
47 *376:43 *1864:CLK 2.31704e-05
48 *376:43 *377:12 8.77116e-05
*RES
1 *1963:X *377:10 17.2286 
2 *377:10 *377:12 18.9464 
3 *377:12 *1864:CLK 16.7107 
4 *377:12 *1865:CLK 14.3357 
5 *377:10 *377:36 2.55357 
6 *377:36 *1874:CLK 15.0679 
7 *377:36 *377:49 3.16071 
8 *377:49 *1875:CLK 14.3357 
9 *377:49 *377:60 1.94643 
10 *377:60 *1876:CLK 15.0679 
11 *377:60 *377:73 3.16071 
12 *377:73 *1877:CLK 13.8 
13 *377:73 *1878:CLK 17.0143 
*END

*D_NET *378 0.0052837
*CONN
*I *1862:CLK I *D sky130_fd_sc_hd__dfrtp_4
*I *1861:CLK I *D sky130_fd_sc_hd__dfrtp_4
*I *1860:CLK I *D sky130_fd_sc_hd__dfrtp_4
*I *1859:CLK I *D sky130_fd_sc_hd__dfrtp_4
*I *1856:CLK I *D sky130_fd_sc_hd__dfrtp_4
*I *1855:CLK I *D sky130_fd_sc_hd__dfrtp_4
*I *1854:CLK I *D sky130_fd_sc_hd__dfrtp_4
*I *1852:CLK I *D sky130_fd_sc_hd__dfrtp_4
*I *1858:CLK I *D sky130_fd_sc_hd__dfrtp_4
*I *1964:X O *D sky130_fd_sc_hd__clkbuf_16
*CAP
1 *1862:CLK 0
2 *1861:CLK 3.39029e-05
3 *1860:CLK 7.03669e-05
4 *1859:CLK 2.76349e-05
5 *1856:CLK 7.37756e-05
6 *1855:CLK 4.4048e-05
7 *1854:CLK 7.70254e-05
8 *1852:CLK 0.000363179
9 *1858:CLK 4.32952e-05
10 *1964:X 0.00028458
11 *378:39 0.000531517
12 *378:37 0.000299956
13 *378:35 0.000427059
14 *378:22 0.000361181
15 *378:20 0.000319673
16 *378:18 0.000314476
17 *378:16 0.000272306
18 *378:10 0.000441714
19 *1852:CLK *390:37 0
20 *1852:CLK *394:29 3.41517e-06
21 *1852:CLK *394:35 0
22 *1860:CLK *1748:C 3.41517e-06
23 *1852:D *1852:CLK 3.13687e-05
24 *1854:D *1852:CLK 6.65302e-05
25 *1855:D *1855:CLK 5.33433e-05
26 *1856:D *1852:CLK 2.6949e-05
27 *1856:D *1854:CLK 1.24897e-05
28 *1856:D *378:37 4.06782e-05
29 *1856:D *378:39 5.26184e-05
30 *1858:D *1856:CLK 1.24897e-05
31 *1858:D *378:35 0.000172839
32 *1858:D *378:37 7.07676e-05
33 *1859:D *1859:CLK 2.89114e-05
34 *1860:D *378:20 9.57064e-05
35 *1860:D *378:22 7.60306e-05
36 *1861:D *1861:CLK 2.59355e-05
37 *1863:D *1860:CLK 3.64953e-05
38 *1863:D *378:10 7.2344e-05
39 *1863:D *378:16 0.000182158
40 *1863:D *378:18 0.000145457
41 *1863:D *378:20 9.11048e-06
42 *376:14 *378:18 2.28335e-05
43 *376:14 *378:20 2.6949e-05
44 *376:14 *378:22 1.41231e-05
45 *376:14 *378:35 1.50563e-05
*RES
1 *1964:X *378:10 18.3357 
2 *378:10 *378:16 3.21429 
3 *378:16 *378:18 1.94643 
4 *378:18 *378:20 3.16071 
5 *378:20 *378:22 2.40179 
6 *378:22 *1858:CLK 14.6125 
7 *378:22 *378:35 4.52679 
8 *378:35 *378:37 3.16071 
9 *378:37 *378:39 1.94643 
10 *378:39 *1852:CLK 20.175 
11 *378:39 *1854:CLK 15.1929 
12 *378:37 *1855:CLK 14.7464 
13 *378:35 *1856:CLK 15.1929 
14 *378:20 *1859:CLK 14.3357 
15 *378:18 *1860:CLK 15.1929 
16 *378:16 *1861:CLK 14.3357 
17 *378:10 *1862:CLK 13.8 
*END

*D_NET *379 0.00474256
*CONN
*I *1893:CLK I *D sky130_fd_sc_hd__dfrtp_4
*I *1891:CLK I *D sky130_fd_sc_hd__dfrtp_4
*I *1890:CLK I *D sky130_fd_sc_hd__dfrtp_4
*I *1888:CLK I *D sky130_fd_sc_hd__dfrtp_4
*I *1886:CLK I *D sky130_fd_sc_hd__dfrtp_4
*I *1965:X O *D sky130_fd_sc_hd__clkbuf_16
*CAP
1 *1893:CLK 0.000149305
2 *1891:CLK 0
3 *1890:CLK 8.27971e-05
4 *1888:CLK 9.50934e-05
5 *1886:CLK 0.000160884
6 *1965:X 8.88584e-05
7 *379:53 0.000193312
8 *379:40 0.000252478
9 *379:25 0.000351675
10 *379:8 0.00038065
11 *1886:CLK *390:14 0.000123288
12 *1890:CLK *1772:C 1.17091e-05
13 *1893:CLK *396:194 2.59093e-05
14 *379:25 *390:14 5.41794e-05
15 *1886:D *1886:CLK 5.28345e-05
16 *1887:CLK *1886:CLK 3.17148e-05
17 *1887:CLK *379:8 5.33005e-05
18 *1887:CLK *379:25 0.000259271
19 *1887:D *1886:CLK 1.9774e-05
20 *1887:D *379:8 4.51416e-05
21 *1888:D *1890:CLK 2.07481e-05
22 *1888:D *379:25 3.34366e-05
23 *1888:D *379:40 0.000267814
24 *1890:D *1893:CLK 0.000150618
25 *1890:D *379:40 9.25014e-06
26 *1890:D *379:53 0.000150632
27 *1892:D *1893:CLK 0.000153047
28 *1893:D *1893:CLK 5.33005e-05
29 *1976:A *379:8 0.000141131
30 *361:18 *379:8 0.000353908
31 *367:10 *1888:CLK 7.3456e-05
32 *367:25 *379:25 9.25014e-06
33 *367:25 *379:40 0.00013966
34 *367:36 *1893:CLK 0.000259285
35 *367:36 *379:40 0.000223592
36 *367:36 *379:53 0.000141382
37 *367:51 *1893:CLK 0.000129868
*RES
1 *1965:X *379:8 17.2107 
2 *379:8 *1886:CLK 17.2464 
3 *379:8 *379:25 3.46429 
4 *379:25 *1888:CLK 15.6036 
5 *379:25 *379:40 4.67857 
6 *379:40 *1890:CLK 15.175 
7 *379:40 *379:53 1.94643 
8 *379:53 *1891:CLK 13.8 
9 *379:53 *1893:CLK 19.3179 
*END

*D_NET *380 0.00524994
*CONN
*I *1885:CLK I *D sky130_fd_sc_hd__dfrtp_4
*I *1884:CLK I *D sky130_fd_sc_hd__dfrtp_4
*I *1883:CLK I *D sky130_fd_sc_hd__dfrtp_4
*I *1882:CLK I *D sky130_fd_sc_hd__dfrtp_4
*I *1881:CLK I *D sky130_fd_sc_hd__dfrtp_4
*I *1880:CLK I *D sky130_fd_sc_hd__dfrtp_4
*I *1966:X O *D sky130_fd_sc_hd__clkbuf_16
*CAP
1 *1885:CLK 0.000854714
2 *1884:CLK 0.000143158
3 *1883:CLK 0
4 *1882:CLK 2.68579e-05
5 *1881:CLK 0
6 *1880:CLK 4.79573e-05
7 *1966:X 0.000292906
8 *380:62 0.00111668
9 *380:51 0.000283885
10 *380:38 0.000306498
11 *380:25 0.00022621
12 *380:12 0.000452509
13 *1884:CLK *1769:C 1.17091e-05
14 *1885:CLK *1885:RESET_B 0.000184561
15 *1885:CLK *1886:RESET_B 1.16179e-05
16 *1885:CLK *406:55 0.000157381
17 *380:12 *1970:A 7.43578e-06
18 *380:12 *390:16 0.000138178
19 *380:25 *390:16 0.000212138
20 *380:38 *390:16 0.000154762
21 *380:51 *390:16 0.000222892
22 *380:62 *390:16 0.00023995
23 *1879:D *380:12 2.99247e-05
24 *1882:D *1882:CLK 3.13687e-05
25 *1882:D *380:51 4.87854e-05
26 *1884:D *1884:CLK 4.78664e-05
27 *237:14 *380:12 0
*RES
1 *1966:X *380:12 19.0232 
2 *380:12 *1880:CLK 14.6125 
3 *380:12 *380:25 2.70536 
4 *380:25 *1881:CLK 13.8 
5 *380:25 *380:38 7.17857 
6 *380:38 *1882:CLK 9.83571 
7 *380:38 *380:51 8.30357 
8 *380:51 *1883:CLK 13.8 
9 *380:51 *380:62 7.66071 
10 *380:62 *1884:CLK 11.3893 
11 *380:62 *1885:CLK 31.7821 
*END

*D_NET *381 0.0184931
*CONN
*I *1736:A I *D sky130_fd_sc_hd__nor4b_1
*I *1722:A I *D sky130_fd_sc_hd__nor4b_1
*I *1720:A I *D sky130_fd_sc_hd__nor4b_1
*I *1717:A I *D sky130_fd_sc_hd__nor4b_1
*I *1719:A I *D sky130_fd_sc_hd__nor4b_1
*I *1715:A I *D sky130_fd_sc_hd__nor4b_1
*I *1716:A I *D sky130_fd_sc_hd__nor4b_1
*I *1713:A I *D sky130_fd_sc_hd__nor4b_1
*I *1711:A I *D sky130_fd_sc_hd__nor4b_1
*I *1709:A I *D sky130_fd_sc_hd__nor4b_1
*I *1710:A I *D sky130_fd_sc_hd__nor4b_1
*I *1708:A I *D sky130_fd_sc_hd__nor4b_1
*I *1714:A I *D sky130_fd_sc_hd__nor4b_1
*I *1712:A I *D sky130_fd_sc_hd__nor4b_1
*I *1718:A I *D sky130_fd_sc_hd__nor4b_1
*I *1721:A I *D sky130_fd_sc_hd__nor4b_1
*I *1967:X O *D sky130_fd_sc_hd__buf_4
*CAP
1 *1736:A 4.30309e-05
2 *1722:A 0
3 *1720:A 0
4 *1717:A 0.000184435
5 *1719:A 0
6 *1715:A 0.000121439
7 *1716:A 0
8 *1713:A 3.99099e-05
9 *1711:A 0.00011031
10 *1709:A 3.80696e-05
11 *1710:A 6.46194e-05
12 *1708:A 0.000171923
13 *1714:A 3.80696e-05
14 *1712:A 7.34033e-05
15 *1718:A 0.000233536
16 *1721:A 0
17 *1967:X 2.21411e-05
18 *381:120 0.000399933
19 *381:96 0.000420976
20 *381:92 0.000512251
21 *381:90 0.000486497
22 *381:68 0.000354628
23 *381:66 0.000778415
24 *381:58 0.000259442
25 *381:56 0.000352851
26 *381:54 0.000251788
27 *381:52 0.000455224
28 *381:50 0.000435429
29 *381:46 0.000308057
30 *381:28 0.000399608
31 *381:18 0.0014776
32 *381:6 0.00134816
33 *1708:A *1708:C 0.000143375
34 *1710:A *1710:C 2.93157e-05
35 *1711:A *382:55 7.70035e-05
36 *1712:A *1712:B 0.00012573
37 *1713:A *1713:B 8.29398e-06
38 *1713:A *1713:C 0.000147965
39 *1715:A *1715:B 5.52302e-05
40 *1715:A *1715:C 5.33005e-05
41 *1715:A *1716:B 5.97398e-05
42 *1717:A *1717:B 2.59355e-05
43 *1717:A *1717:C 2.2549e-05
44 *1718:A *1722:C 2.62951e-05
45 *1718:A *382:33 0
46 *1718:A *391:20 0.000341296
47 *1736:A *1736:B 7.20217e-06
48 *1736:A *1736:C 0.000100684
49 *381:6 *1736:C 1.54142e-05
50 *381:6 *416:165 0.000100685
51 *381:18 *1722:B 0
52 *381:18 *1722:C 0
53 *381:18 *1723:B 2.72449e-05
54 *381:18 *1736:B 9.21958e-05
55 *381:18 *382:18 0.00164504
56 *381:18 *382:33 3.27461e-05
57 *381:18 *391:10 0
58 *381:18 *392:14 5.79582e-06
59 *381:18 *393:10 0.000151333
60 *381:18 *393:12 0.000242913
61 *381:18 *393:14 0.000153047
62 *381:18 *393:16 0.000245335
63 *381:18 *393:18 0.000153047
64 *381:18 *393:20 0.000245335
65 *381:18 *393:22 0.000202128
66 *381:18 *393:24 0.000196656
67 *381:18 *393:26 0.000153047
68 *381:18 *393:28 0.000388132
69 *381:18 *393:32 0.000191403
70 *381:28 *1721:B 8.78904e-05
71 *381:28 *1722:C 0.000178939
72 *381:28 *382:20 2.28598e-05
73 *381:46 *1722:B 2.14658e-05
74 *381:46 *1722:C 0.000173328
75 *381:46 *382:20 2.44318e-05
76 *381:56 *1716:B 3.27461e-05
77 *381:56 *391:39 0
78 *381:56 *391:43 6.98794e-05
79 *381:58 *1716:B 0.000193349
80 *381:58 *391:43 4.46186e-06
81 *381:58 *391:49 7.8327e-05
82 *381:66 *1716:B 1.00332e-05
83 *381:68 *382:120 6.47568e-05
84 *381:90 *382:49 0.000682484
85 *381:92 *1710:B 2.34204e-05
86 *381:92 *382:49 5.59013e-05
87 *381:92 *391:70 2.59677e-05
88 *381:96 *1708:C 2.41972e-05
89 *381:96 *1710:B 1.69497e-05
90 *381:96 *391:70 2.71557e-05
91 *381:96 *391:72 8.02791e-05
92 *381:120 *1709:C 7.57312e-05
93 *1710:D_N *1708:A 8.84912e-05
94 *1710:D_N *1710:A 9.90431e-05
95 *1713:D_N *1713:A 9.90431e-05
96 *1716:D_N *381:56 2.30116e-06
97 *1716:D_N *381:58 1.18451e-05
98 *1716:D_N *381:66 2.8266e-06
99 *1719:D_N *381:52 5.02836e-05
100 *1719:D_N *381:54 6.98762e-05
101 *1719:D_N *381:56 2.8266e-06
102 *1720:D_N *381:50 6.92501e-05
103 *1720:D_N *381:52 1.55485e-05
104 *1721:D_N *381:28 1.24368e-05
105 *1722:D_N *381:18 0.000352171
106 *1722:D_N *381:46 0.00010096
107 *1723:D_N *381:18 0
108 *1728:D_N *381:18 4.28365e-05
109 *1736:D_N *1736:A 3.3283e-05
110 *1736:D_N *381:6 0.000142575
111 *1822:D *1710:A 8.29398e-06
112 *1823:CLK *381:90 0
113 *1823:D *381:120 2.15245e-05
114 *1825:D *1713:A 2.39313e-05
115 *1825:D *381:90 0
116 *1828:D *381:66 0.000133398
117 *1828:D *381:68 0.000139632
118 *1829:D *1715:A 5.52238e-05
119 *1831:D *1717:A 2.89016e-05
120 *1850:CLK *381:18 0
121 *1958:A *381:90 6.48957e-05
122 *372:25 *381:90 0
123 *372:36 *381:90 0
*RES
1 *1967:X *381:6 10.6571 
2 *381:6 *381:18 49.1786 
3 *381:18 *381:28 4.51786 
4 *381:28 *1721:A 9.3 
5 *381:28 *1718:A 23.2821 
6 *381:18 *381:46 1.76786 
7 *381:46 *381:50 9.17857 
8 *381:50 *381:52 2.55357 
9 *381:52 *381:54 2.55357 
10 *381:54 *381:56 2.55357 
11 *381:56 *381:58 2.55357 
12 *381:58 *381:66 7.01786 
13 *381:66 *381:68 3 
14 *381:68 *1712:A 19.9429 
15 *381:68 *1714:A 10.0321 
16 *381:66 *381:90 13.7321 
17 *381:90 *381:92 1.64286 
18 *381:92 *381:96 7.96429 
19 *381:96 *1708:A 13.1571 
20 *381:96 *1710:A 11.0857 
21 *381:92 *381:120 7.5 
22 *381:120 *1709:A 10.0321 
23 *381:120 *1711:A 19.9429 
24 *381:90 *1713:A 15.5857 
25 *381:58 *1716:A 13.8 
26 *381:56 *1715:A 16.4071 
27 *381:54 *1719:A 13.8 
28 *381:52 *1717:A 17.2643 
29 *381:50 *1720:A 13.8 
30 *381:46 *1722:A 9.3 
31 *381:6 *1736:A 10.675 
*END

*D_NET *382 0.0183754
*CONN
*I *1736:B I *D sky130_fd_sc_hd__nor4b_1
*I *1722:B I *D sky130_fd_sc_hd__nor4b_1
*I *1720:B I *D sky130_fd_sc_hd__nor4b_1
*I *1718:B I *D sky130_fd_sc_hd__nor4b_1
*I *1717:B I *D sky130_fd_sc_hd__nor4b_1
*I *1719:B I *D sky130_fd_sc_hd__nor4b_1
*I *1716:B I *D sky130_fd_sc_hd__nor4b_1
*I *1715:B I *D sky130_fd_sc_hd__nor4b_1
*I *1714:B I *D sky130_fd_sc_hd__nor4b_1
*I *1712:B I *D sky130_fd_sc_hd__nor4b_1
*I *1713:B I *D sky130_fd_sc_hd__nor4b_1
*I *1710:B I *D sky130_fd_sc_hd__nor4b_1
*I *1711:B I *D sky130_fd_sc_hd__nor4b_1
*I *1709:B I *D sky130_fd_sc_hd__nor4b_1
*I *1708:B I *D sky130_fd_sc_hd__nor4b_1
*I *1721:B I *D sky130_fd_sc_hd__nor4b_1
*I *1968:X O *D sky130_fd_sc_hd__buf_4
*CAP
1 *1736:B 0.00015765
2 *1722:B 6.97609e-05
3 *1720:B 0.000106699
4 *1718:B 0.000100244
5 *1717:B 5.67879e-05
6 *1719:B 0.000112884
7 *1716:B 0.00029033
8 *1715:B 3.17788e-05
9 *1714:B 0
10 *1712:B 9.09295e-05
11 *1713:B 0.000149523
12 *1710:B 0.000303714
13 *1711:B 3.80696e-05
14 *1709:B 0
15 *1708:B 0.000263245
16 *1721:B 0.000131048
17 *1968:X 7.14492e-05
18 *382:182 0.000206943
19 *382:138 0.000322109
20 *382:120 0.000174507
21 *382:88 0.000574616
22 *382:55 0.000368459
23 *382:51 0.000308469
24 *382:49 0.000633169
25 *382:41 0.000594688
26 *382:39 0.000262426
27 *382:37 0.000406008
28 *382:35 0.000318973
29 *382:33 0.00039203
30 *382:20 0.000549823
31 *382:18 0.00185252
32 *382:8 0.00191813
33 *1712:B *391:57 0.000172085
34 *1713:B *1713:C 0.000163879
35 *1716:B *1715:C 5.33005e-05
36 *1717:B *1717:C 6.05299e-05
37 *1718:B *391:20 3.08664e-05
38 *1718:B *391:29 4.53295e-05
39 *1719:B *1719:C 0.000139637
40 *1719:B *391:39 9.41642e-05
41 *1720:B *1720:C 6.12283e-05
42 *1720:B *391:29 1.58163e-05
43 *1722:B *1722:C 1.46231e-05
44 *1736:B *1736:C 1.59373e-05
45 *382:18 *392:42 0.000388132
46 *382:33 *1722:C 2.16394e-05
47 *382:33 *391:33 7.78226e-05
48 *382:35 *391:33 8.90892e-05
49 *382:35 *391:39 1.00332e-05
50 *382:37 *391:39 0.000266283
51 *382:39 *391:39 3.10819e-05
52 *382:49 *391:57 3.92779e-05
53 *382:49 *391:68 0.000597986
54 *382:49 *391:70 5.33614e-05
55 *382:51 *1711:C 6.96796e-05
56 *382:51 *1713:C 5.33005e-05
57 *382:88 *1713:C 0.000181796
58 *382:120 *391:53 7.66908e-05
59 *1711:A *382:55 7.70035e-05
60 *1712:A *1712:B 0.00012573
61 *1713:A *1713:B 8.29398e-06
62 *1713:D_N *382:51 1.34631e-05
63 *1715:A *1715:B 5.52302e-05
64 *1715:A *1716:B 5.97398e-05
65 *1716:D_N *382:39 5.646e-05
66 *1716:D_N *382:41 0.000105469
67 *1716:D_N *382:49 5.37741e-06
68 *1717:A *1717:B 2.59355e-05
69 *1718:A *382:33 0
70 *1719:D_N *1719:B 9.90431e-05
71 *1720:D_N *1720:B 5.71472e-05
72 *1720:D_N *382:33 3.39108e-05
73 *1722:D_N *382:18 9.15014e-05
74 *1722:D_N *382:20 9.90431e-05
75 *1728:D_N *382:18 4.28365e-05
76 *1736:A *1736:B 7.20217e-06
77 *1736:D_N *1736:B 2.44266e-05
78 *1824:CLK *1713:B 5.38444e-06
79 *1825:D *1713:B 9.99853e-05
80 *1828:D *382:120 5.49489e-05
81 *1829:D *1716:B 1.21258e-05
82 *1832:D *1718:B 5.49489e-05
83 *1832:D *1720:B 0.000271202
84 *1835:D *382:18 0
85 *1837:CLK *382:18 0
86 *1849:D *382:8 7.57394e-05
87 *1959:A *382:18 0.000126439
88 *372:60 *382:18 0
89 *374:36 *382:18 0
90 *374:49 *382:18 0
91 *381:18 *1722:B 0
92 *381:18 *1736:B 9.21958e-05
93 *381:18 *382:18 0.00164504
94 *381:18 *382:33 3.27461e-05
95 *381:28 *1721:B 8.78904e-05
96 *381:28 *382:20 2.28598e-05
97 *381:46 *1722:B 2.14658e-05
98 *381:46 *382:20 2.44318e-05
99 *381:56 *1716:B 3.27461e-05
100 *381:58 *1716:B 0.000193349
101 *381:66 *1716:B 1.00332e-05
102 *381:68 *382:120 6.47568e-05
103 *381:90 *382:49 0.000682484
104 *381:92 *1710:B 2.34204e-05
105 *381:92 *382:49 5.59013e-05
106 *381:96 *1710:B 1.69497e-05
*RES
1 *1968:X *382:8 15.1571 
2 *382:8 *382:18 40.9286 
3 *382:18 *382:20 1.76786 
4 *382:20 *1721:B 11.4964 
5 *382:20 *382:33 10.3929 
6 *382:33 *382:35 1.33929 
7 *382:35 *382:37 3.46429 
8 *382:37 *382:39 1.94643 
9 *382:39 *382:41 2.85714 
10 *382:41 *382:49 15.9107 
11 *382:49 *382:51 2.17857 
12 *382:51 *382:55 6.14286 
13 *382:55 *1708:B 17.9786 
14 *382:55 *1709:B 13.8 
15 *382:51 *1711:B 10.0321 
16 *382:49 *382:88 1.76786 
17 *382:88 *1710:B 23.0321 
18 *382:88 *1713:B 12.6393 
19 *382:41 *382:120 6.69643 
20 *382:120 *1712:B 20.55 
21 *382:120 *1714:B 9.3 
22 *382:39 *382:138 4.5 
23 *382:138 *1715:B 10.2643 
24 *382:138 *1716:B 23.7464 
25 *382:37 *1719:B 16.3893 
26 *382:35 *1717:B 15.0679 
27 *382:33 *382:182 4.5 
28 *382:182 *1718:B 11.4964 
29 *382:182 *1720:B 12.6214 
30 *382:18 *1722:B 10.675 
31 *382:8 *1736:B 17.4429 
*END

*D_NET *383 0.00984653
*CONN
*I *1734:B I *D sky130_fd_sc_hd__nor4b_1
*I *1735:B I *D sky130_fd_sc_hd__nor4b_1
*I *1733:B I *D sky130_fd_sc_hd__nor4b_1
*I *1732:B I *D sky130_fd_sc_hd__nor4b_1
*I *1731:B I *D sky130_fd_sc_hd__nor4b_1
*I *1730:B I *D sky130_fd_sc_hd__nor4b_1
*I *1729:B I *D sky130_fd_sc_hd__nor4b_1
*I *1728:B I *D sky130_fd_sc_hd__nor4b_1
*I *1727:B I *D sky130_fd_sc_hd__nor4b_1
*I *1726:B I *D sky130_fd_sc_hd__nor4b_1
*I *1725:B I *D sky130_fd_sc_hd__nor4b_1
*I *1724:B I *D sky130_fd_sc_hd__nor4b_1
*I *1723:B I *D sky130_fd_sc_hd__nor4b_1
*I *1969:X O *D sky130_fd_sc_hd__clkbuf_4
*CAP
1 *1734:B 0.000170204
2 *1735:B 8.71606e-05
3 *1733:B 0
4 *1732:B 9.47631e-05
5 *1731:B 0
6 *1730:B 9.47631e-05
7 *1729:B 0
8 *1728:B 0.000149876
9 *1727:B 0
10 *1726:B 0.00011843
11 *1725:B 8.4177e-05
12 *1724:B 0.000130429
13 *1723:B 0.000108056
14 *1969:X 0
15 *383:37 0.000236991
16 *383:24 0.000327812
17 *383:22 0.000354449
18 *383:20 8.08806e-05
19 *383:18 0.000261628
20 *383:16 0.000136024
21 *383:14 0.000206224
22 *383:12 0.000111461
23 *383:10 0.000206224
24 *383:8 8.72187e-05
25 *383:6 0.000129423
26 *383:4 0.000170204
27 *1723:B *1723:A 0.000169844
28 *1723:B *393:32 0.000193125
29 *1724:B *1724:C 1.00332e-05
30 *1724:B *391:10 5.48715e-05
31 *1725:B *1725:C 0.000212562
32 *1725:B *392:46 3.25724e-05
33 *1726:B *1726:C 0.000215088
34 *1726:B *392:36 0.000175892
35 *1728:B *1728:A 0.000178847
36 *1728:B *1728:C 1.46231e-05
37 *1730:B *1730:A 0.000178847
38 *1730:B *1730:C 0.000215518
39 *1732:B *1732:A 0.000178847
40 *1732:B *1732:C 0.000215518
41 *1734:B *1734:A 2.41857e-05
42 *1734:B *1734:C 1.03105e-05
43 *1735:B *392:14 1.00332e-05
44 *1735:B *392:16 0.000173601
45 *1735:B *392:18 7.07214e-05
46 *1735:B *393:10 0.000119618
47 *1735:B *393:12 0.000127446
48 *383:8 *392:18 0.000114972
49 *383:8 *393:12 0.000117189
50 *383:8 *393:14 1.02504e-05
51 *383:10 *392:18 1.00332e-05
52 *383:10 *392:20 0.000165946
53 *383:10 *393:14 0.000144512
54 *383:10 *393:16 3.34366e-05
55 *383:12 *392:20 3.27526e-05
56 *383:12 *392:22 0.000186418
57 *383:12 *393:16 0.00021262
58 *383:12 *393:18 1.02504e-05
59 *383:14 *392:22 1.00332e-05
60 *383:14 *392:24 0.000165946
61 *383:14 *393:18 0.000144512
62 *383:14 *393:20 3.34366e-05
63 *383:16 *392:24 3.27526e-05
64 *383:16 *392:26 0.000186418
65 *383:16 *393:20 0.00021262
66 *383:16 *393:22 1.02504e-05
67 *383:18 *392:26 1.00332e-05
68 *383:18 *392:28 0.000200345
69 *383:18 *392:30 4.49045e-05
70 *383:18 *393:22 0.000194299
71 *383:18 *393:24 5.33072e-05
72 *383:20 *392:30 0.000140749
73 *383:20 *393:24 0.000141722
74 *383:20 *393:26 1.02504e-05
75 *383:22 *392:30 1.00332e-05
76 *383:22 *392:36 0.000141579
77 *383:22 *393:26 0.000144512
78 *383:22 *393:28 1.02504e-05
79 *383:24 *392:36 5.7119e-05
80 *383:24 *393:28 0.000381318
81 *383:24 *393:32 1.02504e-05
82 *383:37 *1725:C 0
83 *1725:D_N *1724:B 0.000226867
84 *1725:D_N *1725:B 0.000122591
85 *1725:D_N *383:37 0
86 *1734:D_N *1734:B 0.000136958
87 *1838:D *1725:B 1.59373e-05
88 *1842:D *1728:B 3.41517e-06
89 *381:18 *1723:B 2.72449e-05
*RES
1 *1969:X *383:4 9.3 
2 *383:4 *383:6 4.5 
3 *383:6 *383:8 1.64286 
4 *383:8 *383:10 2.25 
5 *383:10 *383:12 2.85714 
6 *383:12 *383:14 2.25 
7 *383:14 *383:16 2.85714 
8 *383:16 *383:18 3.16071 
9 *383:18 *383:20 1.94643 
10 *383:20 *383:22 1.94643 
11 *383:22 *383:24 4.98214 
12 *383:24 *1723:B 16.9607 
13 *383:24 *383:37 4.92857 
14 *383:37 *1724:B 21.2107 
15 *383:37 *1725:B 11.9071 
16 *383:22 *1726:B 16.8357 
17 *383:20 *1727:B 13.8 
18 *383:18 *1728:B 16.4071 
19 *383:16 *1729:B 13.8 
20 *383:14 *1730:B 16.4071 
21 *383:12 *1731:B 13.8 
22 *383:10 *1732:B 16.4071 
23 *383:8 *1733:B 13.8 
24 *383:6 *1735:B 16.9607 
25 *383:4 *1734:B 12.3357 
*END

*D_NET *384 0.0186353
*CONN
*I *1764:B I *D sky130_fd_sc_hd__nor4b_1
*I *1763:B I *D sky130_fd_sc_hd__nor4b_1
*I *1762:B I *D sky130_fd_sc_hd__nor4b_1
*I *1749:B I *D sky130_fd_sc_hd__nor4b_1
*I *1747:B I *D sky130_fd_sc_hd__nor4b_1
*I *1746:B I *D sky130_fd_sc_hd__nor4b_1
*I *1748:B I *D sky130_fd_sc_hd__nor4b_1
*I *1744:B I *D sky130_fd_sc_hd__nor4b_1
*I *1745:B I *D sky130_fd_sc_hd__nor4b_1
*I *1742:B I *D sky130_fd_sc_hd__nor4b_1
*I *1743:B I *D sky130_fd_sc_hd__nor4b_1
*I *1740:B I *D sky130_fd_sc_hd__nor4b_1
*I *1741:B I *D sky130_fd_sc_hd__nor4b_1
*I *1739:B I *D sky130_fd_sc_hd__nor4b_1
*I *1738:B I *D sky130_fd_sc_hd__nor4b_1
*I *1737:B I *D sky130_fd_sc_hd__nor4b_1
*I *1970:X O *D sky130_fd_sc_hd__buf_4
*CAP
1 *1764:B 2.42016e-05
2 *1763:B 5.48009e-05
3 *1762:B 0
4 *1749:B 3.2579e-05
5 *1747:B 0.000360396
6 *1746:B 0.00013025
7 *1748:B 5.12256e-05
8 *1744:B 0.000120519
9 *1745:B 6.79014e-05
10 *1742:B 0.000134592
11 *1743:B 6.53362e-05
12 *1740:B 0.00011157
13 *1741:B 4.35435e-05
14 *1739:B 0.000293943
15 *1738:B 0.000147159
16 *1737:B 0.00019764
17 *1970:X 0.000134064
18 *384:68 0.000400024
19 *384:66 0.000584724
20 *384:56 0.000383266
21 *384:50 0.000383894
22 *384:48 0.000334415
23 *384:46 0.000400549
24 *384:44 0.000318414
25 *384:42 0.000354
26 *384:40 0.000311876
27 *384:38 0.000310376
28 *384:36 0.00051234
29 *384:34 0.00174931
30 *384:20 0.00175595
31 *384:18 0.00036605
32 *384:12 0.000345823
33 *1737:B *400:20 3.92955e-05
34 *1737:B *400:24 0
35 *1737:B *400:82 1.09232e-05
36 *1737:B *416:163 0.00023958
37 *1738:B *394:29 3.69621e-05
38 *1738:B *400:20 3.41517e-06
39 *1738:B *400:82 1.21859e-05
40 *1739:B *1739:A 0.000354345
41 *1739:B *1739:C 1.74352e-05
42 *1739:B *394:47 9.35794e-06
43 *1740:B *1740:A 1.24368e-05
44 *1740:B *1740:C 5.49544e-05
45 *1740:B *394:57 4.61327e-05
46 *1741:B *394:47 2.23592e-05
47 *1741:B *403:66 1.24368e-05
48 *1742:B *1742:A 1.24368e-05
49 *1742:B *1742:C 5.33005e-05
50 *1743:B *1743:A 1.24368e-05
51 *1743:B *1743:C 2.23592e-05
52 *1744:B *1744:A 2.26499e-05
53 *1744:B *1744:C 3.93346e-05
54 *1745:B *1745:A 4.74534e-05
55 *1745:B *1745:C 1.46231e-05
56 *1746:B *1746:A 1.24368e-05
57 *1746:B *1746:C 1.95962e-05
58 *1747:B *1747:C 6.7e-06
59 *1747:B *403:33 1.32056e-05
60 *1747:B *403:42 7.84688e-05
61 *1748:B *1748:A 6.05161e-06
62 *1748:B *1748:C 2.48363e-05
63 *1749:B *1749:A 1.24368e-05
64 *1749:B *1749:C 4.68718e-05
65 *1749:B *403:42 0
66 *1763:B *1764:A 4.08637e-05
67 *1763:B *1764:C 0.000180951
68 *1763:B *403:15 0.000185118
69 *1764:B *1764:A 3.5912e-05
70 *384:12 *1764:C 1.62838e-05
71 *384:18 *1764:A 0.000183444
72 *384:18 *1764:C 1.55909e-05
73 *384:18 *403:21 2.21254e-05
74 *384:20 *403:21 0.000206166
75 *384:34 *1753:B 0.000151519
76 *384:34 *1761:C 9.8435e-05
77 *384:34 *1997:A 0
78 *384:34 *385:58 2.24646e-05
79 *384:34 *385:77 0.000136676
80 *384:34 *395:32 0.000208606
81 *384:34 *395:58 5.97681e-05
82 *384:34 *395:69 9.23888e-05
83 *384:34 *395:80 0.000138826
84 *384:34 *395:93 7.48356e-05
85 *384:34 *395:104 8.33463e-05
86 *384:34 *395:115 7.34455e-06
87 *384:34 *395:128 0.000195979
88 *384:34 *400:82 0.000548302
89 *384:34 *400:99 0.000159763
90 *384:34 *403:21 1.00332e-05
91 *384:34 *403:33 0
92 *384:34 *411:47 6.27037e-05
93 *384:34 *411:51 0.000172679
94 *384:34 *411:53 0.000242806
95 *384:34 *411:55 0.000147862
96 *384:34 *411:57 0.000169806
97 *384:34 *416:130 0
98 *384:34 *416:132 0
99 *384:36 *400:82 9.15804e-05
100 *384:38 *400:82 0.000117896
101 *384:40 *400:82 0.000164554
102 *384:42 *400:82 0.000211205
103 *384:44 *400:82 0.000140375
104 *384:46 *400:82 0.000236806
105 *384:48 *400:82 0.00013966
106 *384:50 *394:57 1.62621e-05
107 *384:50 *400:82 0.000234384
108 *384:56 *394:57 7.14923e-05
109 *384:56 *400:82 0.000149911
110 *384:66 *394:47 6.16848e-05
111 *384:66 *400:82 0.000200245
112 *384:66 *403:66 1.38323e-05
113 *384:66 *416:163 0
114 *384:68 *400:82 4.63368e-05
115 *1738:D_N *1738:B 0.000102168
116 *1739:D_N *1739:B 4.22349e-05
117 *1739:D_N *384:66 2.11419e-05
118 *1741:D_N *384:66 8.67371e-05
119 *1753:D_N *384:34 0.00011365
120 *1759:D_N *384:34 0.000212517
121 *1764:D_N *384:18 5.41794e-05
122 *1764:D_N *384:20 9.25014e-06
123 *1855:D *1740:B 5.33005e-05
124 *1857:D *1742:B 5.33005e-05
125 *1859:D *1744:B 2.59355e-05
126 *1860:D *1745:B 1.17091e-05
127 *1861:D *1746:B 5.33005e-05
128 *1862:D *1747:B 0.000264749
129 *1862:D *1749:B 2.23592e-05
130 *1863:D *1748:B 3.41517e-06
131 *1878:CLK *384:20 0
132 *1878:D *1764:B 1.8303e-05
133 *1878:D *384:12 2.11279e-05
134 *1879:D *384:12 0.00010137
135 *377:12 *384:34 0
136 *377:73 *384:20 0
137 *377:73 *384:34 0
*RES
1 *1970:X *384:12 20.5946 
2 *384:12 *384:18 7.40179 
3 *384:18 *384:20 2.85714 
4 *384:20 *384:34 47.0893 
5 *384:34 *384:36 1.33929 
6 *384:36 *384:38 1.64286 
7 *384:38 *384:40 2.25 
8 *384:40 *384:42 2.85714 
9 *384:42 *384:44 1.94643 
10 *384:44 *384:46 3.16071 
11 *384:46 *384:48 1.94643 
12 *384:48 *384:50 3.16071 
13 *384:50 *384:56 6.875 
14 *384:56 *384:66 9.57143 
15 *384:66 *384:68 1.1875 
16 *384:68 *1737:B 17.9518 
17 *384:68 *1738:B 16.7018 
18 *384:66 *1739:B 19.2821 
19 *384:56 *1741:B 10.2643 
20 *384:50 *1740:B 15.9964 
21 *384:48 *1743:B 15.0679 
22 *384:46 *1742:B 15.9964 
23 *384:44 *1745:B 15.0679 
24 *384:42 *1744:B 15.9964 
25 *384:40 *1748:B 14.7643 
26 *384:38 *1746:B 15.9964 
27 *384:36 *1747:B 19.3 
28 *384:34 *1749:B 14.7643 
29 *384:20 *1762:B 13.8 
30 *384:18 *1763:B 15.9786 
31 *384:12 *1764:B 10.0321 
*END

*D_NET *385 0.00952208
*CONN
*I *1761:B I *D sky130_fd_sc_hd__nor4b_1
*I *1759:B I *D sky130_fd_sc_hd__nor4b_1
*I *1758:B I *D sky130_fd_sc_hd__nor4b_1
*I *1756:B I *D sky130_fd_sc_hd__nor4b_1
*I *1757:B I *D sky130_fd_sc_hd__nor4b_1
*I *1755:B I *D sky130_fd_sc_hd__nor4b_1
*I *1752:B I *D sky130_fd_sc_hd__nor4b_1
*I *1751:B I *D sky130_fd_sc_hd__nor4b_1
*I *1750:B I *D sky130_fd_sc_hd__nor4b_1
*I *1753:B I *D sky130_fd_sc_hd__nor4b_1
*I *1754:B I *D sky130_fd_sc_hd__nor4b_1
*I *1760:B I *D sky130_fd_sc_hd__nor4b_1
*I *1971:X O *D sky130_fd_sc_hd__clkbuf_4
*CAP
1 *1761:B 0.000147361
2 *1759:B 7.92545e-05
3 *1758:B 0.00029437
4 *1756:B 0.000107367
5 *1757:B 7.87322e-05
6 *1755:B 0
7 *1752:B 0
8 *1751:B 7.79771e-05
9 *1750:B 0.000109737
10 *1753:B 0.0001452
11 *1754:B 9.34769e-05
12 *1760:B 0.000129113
13 *1971:X 0.00010902
14 *385:81 0.000253822
15 *385:77 0.00017217
16 *385:58 0.000403476
17 *385:52 0.000310956
18 *385:37 0.000366355
19 *385:31 0.000379488
20 *385:29 0.00036119
21 *385:27 0.000386059
22 *385:25 0.000325868
23 *385:23 0.000369489
24 *385:6 0.000238133
25 *1750:B *1750:A 7.6997e-05
26 *1750:B *395:19 4.84319e-05
27 *1750:B *395:32 4.9663e-06
28 *1750:B *400:82 4.1331e-06
29 *1750:B *400:99 1.5942e-05
30 *1750:B *403:33 0
31 *1750:B *411:61 5.13496e-05
32 *1751:B *1751:A 0.000119863
33 *1751:B *1751:C 0.000170484
34 *1753:B *1753:C 0.000172085
35 *1754:B *1754:C 5.49489e-05
36 *1756:B *1756:C 5.49489e-05
37 *1757:B *1757:A 1.46231e-05
38 *1757:B *1757:C 1.13883e-05
39 *1758:B *1758:A 1.13883e-05
40 *1758:B *1758:C 4.35597e-05
41 *1760:B *1760:A 1.02132e-05
42 *1760:B *1760:C 5.79701e-05
43 *1760:B *411:17 2.9644e-05
44 *1761:B *1761:A 7.6644e-05
45 *1761:B *1761:C 9.65791e-05
46 *385:25 *1761:A 8.90091e-05
47 *385:25 *1761:C 5.48248e-05
48 *385:25 *395:104 1.12323e-05
49 *385:25 *395:115 7.6644e-05
50 *385:25 *395:128 0.000532184
51 *385:25 *411:21 0.000532644
52 *385:25 *416:163 0.00012384
53 *385:27 *395:104 3.36969e-05
54 *385:29 *395:104 0.000117189
55 *385:31 *395:80 9.30022e-05
56 *385:31 *395:93 0.000148903
57 *385:31 *395:104 9.25014e-06
58 *385:37 *395:69 9.25014e-06
59 *385:37 *395:80 0.000175519
60 *385:52 *395:69 4.43698e-05
61 *385:58 *395:58 5.41554e-05
62 *385:58 *395:69 8.11028e-06
63 *385:77 *1752:C 5.33005e-05
64 *385:77 *1753:C 3.36017e-05
65 *385:81 *411:59 0.000127246
66 *385:81 *411:61 6.75564e-05
67 *1753:D_N *1750:B 8.6229e-06
68 *1753:D_N *385:81 0.000199349
69 *1757:D_N *1757:B 6.05161e-06
70 *1761:D_N *1761:B 6.05161e-06
71 *1866:D *1751:B 9.58126e-05
72 *1867:D *385:77 5.49544e-05
73 *1871:D *1756:B 1.24368e-05
74 *1873:D *1758:B 0.000223463
75 *1873:D *385:25 0
76 *1875:D *1760:B 6.05161e-06
77 *1875:D *385:6 4.26863e-05
78 *359:8 *1754:B 4.35679e-05
79 *359:8 *385:52 5.20669e-05
80 *377:12 *385:29 0
81 *377:12 *385:31 0
82 *377:12 *385:37 0
83 *384:34 *1753:B 0.000151519
84 *384:34 *385:58 2.24646e-05
85 *384:34 *385:77 0.000136676
*RES
1 *1971:X *385:6 10.6571 
2 *385:6 *1760:B 12.0679 
3 *385:6 *385:23 4.5 
4 *385:23 *385:25 8.47321 
5 *385:25 *385:27 0.580357 
6 *385:27 *385:29 1.64286 
7 *385:29 *385:31 3.16071 
8 *385:31 *385:37 7.17857 
9 *385:37 *1754:B 11.0857 
10 *385:37 *385:52 7.39286 
11 *385:52 *385:58 2.91071 
12 *385:58 *1753:B 17.6214 
13 *385:58 *385:77 7 
14 *385:77 *385:81 7.05357 
15 *385:81 *1750:B 16.05 
16 *385:81 *1751:B 16.5321 
17 *385:77 *1752:B 9.3 
18 *385:52 *1755:B 13.8 
19 *385:31 *1757:B 15.175 
20 *385:29 *1756:B 15.5857 
21 *385:27 *1758:B 17.9429 
22 *385:25 *1759:B 15.0232 
23 *385:23 *1761:B 16.5143 
*END

*D_NET *386 0.0198312
*CONN
*I *1774:B I *D sky130_fd_sc_hd__nor4b_1
*I *1777:B I *D sky130_fd_sc_hd__nor4b_1
*I *1791:B I *D sky130_fd_sc_hd__nor4b_1
*I *1790:B I *D sky130_fd_sc_hd__nor4b_1
*I *1789:B I *D sky130_fd_sc_hd__nor4b_1
*I *1788:B I *D sky130_fd_sc_hd__nor4b_1
*I *1775:B I *D sky130_fd_sc_hd__nor4b_1
*I *1772:B I *D sky130_fd_sc_hd__nor4b_1
*I *1773:B I *D sky130_fd_sc_hd__nor4b_1
*I *1770:B I *D sky130_fd_sc_hd__nor4b_1
*I *1769:B I *D sky130_fd_sc_hd__nor4b_1
*I *1768:B I *D sky130_fd_sc_hd__nor4b_1
*I *1767:B I *D sky130_fd_sc_hd__nor4b_1
*I *1765:B I *D sky130_fd_sc_hd__nor4b_1
*I *1766:B I *D sky130_fd_sc_hd__nor4b_1
*I *1771:B I *D sky130_fd_sc_hd__nor4b_1
*I *1972:X O *D sky130_fd_sc_hd__buf_4
*CAP
1 *1774:B 0.000303002
2 *1777:B 0
3 *1791:B 0.000135379
4 *1790:B 9.29001e-05
5 *1789:B 7.00876e-05
6 *1788:B 8.79899e-05
7 *1775:B 0
8 *1772:B 0.000109527
9 *1773:B 0
10 *1770:B 0.000117623
11 *1769:B 0.000113536
12 *1768:B 0
13 *1767:B 0.000159387
14 *1765:B 0
15 *1766:B 0.000284621
16 *1771:B 0.000173689
17 *1972:X 5.02953e-05
18 *386:198 0.000400594
19 *386:183 0.000346155
20 *386:170 0.00169592
21 *386:148 0.00164555
22 *386:144 0.000671819
23 *386:129 0.000292386
24 *386:116 0.000249112
25 *386:107 0.000368371
26 *386:88 0.000485122
27 *386:43 0.00062343
28 *386:33 0.000615301
29 *386:29 0.000282229
30 *386:25 0.000449761
31 *386:23 0.00024487
32 *386:8 0.000223985
33 *1766:B *1765:A 1.78252e-05
34 *1766:B *1766:C 0.000142157
35 *1767:B *1767:C 4.2805e-05
36 *1769:B *1769:C 0.000139637
37 *1770:B *1770:C 2.85957e-05
38 *1771:B *1771:C 5.63882e-05
39 *1771:B *390:118 4.29615e-05
40 *1771:B *390:149 0.000132071
41 *1772:B *1772:C 8.44071e-05
42 *1772:B *396:133 0.000136958
43 *1774:B *396:177 3.05201e-05
44 *1788:B *1788:A 2.23592e-05
45 *1788:B *1788:C 0.000215088
46 *1788:B *396:202 9.71197e-05
47 *1789:B *1789:A 2.89114e-05
48 *1790:B *1790:A 2.23592e-05
49 *1790:B *1790:C 0.000180072
50 *1791:B *1791:A 5.11382e-05
51 *1791:B *1791:C 4.61169e-05
52 *1791:B *396:215 1.6271e-05
53 *386:8 *390:118 5.49489e-05
54 *386:25 *390:149 0
55 *386:25 *416:126 0
56 *386:29 *416:126 0
57 *386:33 *416:126 0
58 *386:43 *1765:C 1.58365e-05
59 *386:43 *416:126 0.000346156
60 *386:88 *1771:C 1.39782e-05
61 *386:107 *396:123 0.000287651
62 *386:107 *396:133 5.79582e-06
63 *386:107 *416:126 0
64 *386:116 *396:133 5.25557e-05
65 *386:144 *1775:C 3.57366e-05
66 *386:144 *396:158 1.32056e-05
67 *386:144 *412:47 5.49489e-05
68 *386:144 *412:53 3.0097e-05
69 *386:144 *416:126 0
70 *386:148 *1777:A 4.902e-05
71 *386:148 *1777:C 5.85208e-05
72 *386:170 *1777:A 1.98839e-05
73 *386:170 *1780:C 5.93614e-05
74 *386:170 *1787:B 0.000236667
75 *386:170 *387:53 0.000127246
76 *386:170 *387:62 0.00021002
77 *386:170 *387:77 0.000163705
78 *386:170 *387:86 0.000163568
79 *386:170 *387:99 0.000207853
80 *386:170 *387:108 0.000139202
81 *386:170 *390:149 0.000531466
82 *386:170 *396:202 0
83 *386:170 *396:206 1.41642e-05
84 *386:170 *397:30 2.29768e-05
85 *386:170 *400:162 0.000199421
86 *386:170 *412:39 0.000199428
87 *386:170 *412:47 7.97314e-05
88 *386:170 *416:112 0
89 *386:183 *396:206 8.54803e-05
90 *386:183 *400:162 0
91 *386:198 *396:206 2.84019e-05
92 *386:198 *396:215 0.000103118
93 *1766:D_N *1766:B 0.00016563
94 *1767:D_N *1767:B 0.000136958
95 *1767:D_N *386:43 0.000270257
96 *1769:D_N *1769:B 0.000180355
97 *1770:D_N *1770:B 0.000125394
98 *1774:D_N *1774:B 3.77065e-05
99 *1774:D_N *386:116 4.51667e-05
100 *1774:D_N *386:129 0.00018404
101 *1774:D_N *386:144 0.000144125
102 *1777:D_N *386:170 5.33005e-05
103 *1778:D_N *386:170 0.000237507
104 *1779:D_N *386:170 0.000304921
105 *1787:D_N *386:170 2.11419e-05
106 *1788:D_N *1788:B 0.000178847
107 *1790:D_N *1790:B 0.000178847
108 *1880:D *1766:B 0.000145392
109 *1887:D *1770:B 0.000272302
110 *1893:D *1774:B 4.35597e-05
111 *1893:D *386:144 2.60746e-05
112 *1893:D *386:148 6.05161e-06
113 *1976:A *386:25 4.30608e-05
114 *1976:A *386:88 0.000144791
115 *1976:A *386:107 0.00014513
116 *237:10 *1766:B 2.14757e-05
117 *237:14 *386:25 9.59994e-05
118 *237:14 *386:29 9.0059e-05
119 *237:14 *386:33 0.000250201
120 *237:14 *386:107 0.000381516
121 *237:14 *386:116 0.000225307
122 *237:14 *386:129 0.000197991
123 *237:14 *386:144 3.07426e-06
124 *237:16 *386:170 3.84395e-05
*RES
1 *1972:X *386:8 10.5679 
2 *386:8 *1771:B 21.7107 
3 *386:8 *386:23 4.5 
4 *386:23 *386:25 3.16071 
5 *386:25 *386:29 3.08929 
6 *386:29 *386:33 7.66071 
7 *386:33 *386:43 16.5 
8 *386:43 *1766:B 15.425 
9 *386:43 *1765:B 9.3 
10 *386:33 *1767:B 12.2107 
11 *386:29 *1768:B 13.8 
12 *386:25 *1769:B 16.3893 
13 *386:23 *386:88 1.94643 
14 *386:88 *1770:B 17.2464 
15 *386:88 *386:107 7.76786 
16 *386:107 *1773:B 13.8 
17 *386:107 *386:116 2.85714 
18 *386:116 *1772:B 15.9786 
19 *386:116 *386:129 7.05357 
20 *386:129 *1775:B 9.3 
21 *386:129 *386:144 13.2321 
22 *386:144 *386:148 2.39286 
23 *386:148 *386:170 48.2679 
24 *386:170 *1788:B 16.8179 
25 *386:170 *386:183 2.25 
26 *386:183 *1789:B 15.1929 
27 *386:183 *386:198 3.46429 
28 *386:198 *1790:B 16.3893 
29 *386:198 *1791:B 16.8357 
30 *386:148 *1777:B 9.3 
31 *386:144 *1774:B 13.3357 
*END

*D_NET *387 0.00788886
*CONN
*I *1778:B I *D sky130_fd_sc_hd__nor4b_1
*I *1787:B I *D sky130_fd_sc_hd__nor4b_1
*I *1786:B I *D sky130_fd_sc_hd__nor4b_1
*I *1785:B I *D sky130_fd_sc_hd__nor4b_1
*I *1784:B I *D sky130_fd_sc_hd__nor4b_1
*I *1783:B I *D sky130_fd_sc_hd__nor4b_1
*I *1782:B I *D sky130_fd_sc_hd__nor4b_1
*I *1781:B I *D sky130_fd_sc_hd__nor4b_1
*I *1780:B I *D sky130_fd_sc_hd__nor4b_1
*I *1779:B I *D sky130_fd_sc_hd__nor4b_1
*I *1776:B I *D sky130_fd_sc_hd__nor4b_1
*I *1973:X O *D sky130_fd_sc_hd__buf_2
*CAP
1 *1778:B 7.72054e-05
2 *1787:B 7.92551e-05
3 *1786:B 0.000180586
4 *1785:B 0
5 *1784:B 0.000162916
6 *1783:B 0
7 *1782:B 0.000146354
8 *1781:B 0
9 *1780:B 0
10 *1779:B 0
11 *1776:B 0.000240531
12 *1973:X 0
13 *387:108 0.000306228
14 *387:99 0.000117673
15 *387:86 0.000284192
16 *387:77 0.000107502
17 *387:62 0.000269562
18 *387:53 0.000126362
19 *387:47 0.000285618
20 *387:38 0.000198774
21 *387:10 0.000349851
22 *387:4 0.000160349
23 *1776:B *1776:A 0.000291971
24 *1776:B *1983:A 9.35114e-06
25 *1776:B *400:162 1.03037e-05
26 *1778:B *1778:C 0.000215518
27 *1778:B *1780:A 0.000167436
28 *1782:B *1782:C 6.51142e-05
29 *1782:B *412:39 0.000136958
30 *1784:B *1784:C 2.67489e-05
31 *1786:B *1786:C 4.22431e-05
32 *1787:B *1787:C 0.000169405
33 *1787:B *397:100 8.00806e-05
34 *387:10 *1779:A 3.61487e-05
35 *387:10 *1779:C 3.57366e-05
36 *387:10 *1780:C 0.000181996
37 *387:10 *1973:A 0
38 *387:38 *1780:C 0.000124869
39 *387:38 *416:112 0.000124869
40 *387:47 *1780:A 0.000195396
41 *387:53 *1778:C 0
42 *387:53 *397:30 1.02504e-05
43 *387:53 *397:43 0.000119618
44 *387:62 *397:43 1.02504e-05
45 *387:62 *397:52 0.000213478
46 *387:77 *397:52 1.02504e-05
47 *387:77 *397:67 0.000164547
48 *387:86 *397:67 1.02504e-05
49 *387:86 *397:76 0.000165269
50 *387:99 *397:76 5.46971e-05
51 *387:99 *397:91 0.000164774
52 *387:108 *397:91 1.02504e-05
53 *387:108 *397:100 0.00014209
54 *1778:D_N *1776:B 0.000197968
55 *1779:D_N *387:10 5.018e-05
56 *1784:D_N *1784:B 0.000135028
57 *1786:D_N *1786:B 0.000135028
58 *1896:D *1778:B 1.46231e-05
59 *237:16 *1776:B 2.49484e-05
60 *386:170 *1787:B 0.000236667
61 *386:170 *387:53 0.000127246
62 *386:170 *387:62 0.00021002
63 *386:170 *387:77 0.000163705
64 *386:170 *387:86 0.000163568
65 *386:170 *387:99 0.000207853
66 *386:170 *387:108 0.000139202
*RES
1 *1973:X *387:4 9.3 
2 *387:4 *387:10 3.03571 
3 *387:10 *1776:B 23.8893 
4 *387:10 *1779:B 9.3 
5 *387:4 *387:38 10.6429 
6 *387:38 *1780:B 9.3 
7 *387:38 *387:47 2.91071 
8 *387:47 *387:53 6.57143 
9 *387:53 *1781:B 13.8 
10 *387:53 *387:62 2.85714 
11 *387:62 *1782:B 16.8357 
12 *387:62 *387:77 2.25 
13 *387:77 *1783:B 13.8 
14 *387:77 *387:86 2.25 
15 *387:86 *1784:B 16.4071 
16 *387:86 *387:99 2.85714 
17 *387:99 *1785:B 13.8 
18 *387:99 *387:108 1.94643 
19 *387:108 *1786:B 16.8357 
20 *387:108 *1787:B 16.9607 
21 *387:47 *1778:B 11.9071 
*END

*D_NET *388 0.0197553
*CONN
*I *1793:B I *D sky130_fd_sc_hd__nor4b_1
*I *1797:B I *D sky130_fd_sc_hd__nor4b_1
*I *1820:B I *D sky130_fd_sc_hd__nor4b_1
*I *1818:B I *D sky130_fd_sc_hd__nor4b_1
*I *1819:B I *D sky130_fd_sc_hd__nor4b_1
*I *1804:B I *D sky130_fd_sc_hd__nor4b_1
*I *1803:B I *D sky130_fd_sc_hd__nor4b_1
*I *1802:B I *D sky130_fd_sc_hd__nor4b_1
*I *1801:B I *D sky130_fd_sc_hd__nor4b_1
*I *1800:B I *D sky130_fd_sc_hd__nor4b_1
*I *1799:B I *D sky130_fd_sc_hd__nor4b_1
*I *1798:B I *D sky130_fd_sc_hd__nor4b_1
*I *1796:B I *D sky130_fd_sc_hd__nor4b_1
*I *1795:B I *D sky130_fd_sc_hd__nor4b_1
*I *1794:B I *D sky130_fd_sc_hd__nor4b_1
*I *1792:B I *D sky130_fd_sc_hd__nor4b_1
*I *1974:X O *D sky130_fd_sc_hd__buf_4
*CAP
1 *1793:B 0
2 *1797:B 0
3 *1820:B 0.000144198
4 *1818:B 0
5 *1819:B 7.11225e-05
6 *1804:B 2.78177e-05
7 *1803:B 0
8 *1802:B 0.00015746
9 *1801:B 6.23168e-05
10 *1800:B 8.40798e-05
11 *1799:B 7.01377e-05
12 *1798:B 0.000162619
13 *1796:B 0.00012668
14 *1795:B 0
15 *1794:B 0.000154533
16 *1792:B 0.000301075
17 *1974:X 0.000171758
18 *388:218 0.000476098
19 *388:193 0.00135316
20 *388:168 0.00116971
21 *388:155 0.000298562
22 *388:134 0.000377057
23 *388:119 0.000281319
24 *388:102 0.000411582
25 *388:89 0.000418349
26 *388:81 0.00026824
27 *388:68 0.000415035
28 *388:53 0.000335293
29 *388:40 0.000185946
30 *388:27 0.000328911
31 *388:10 0.000387019
32 *388:8 0.000171758
33 *1792:B *1984:A 0.000211884
34 *1792:B *398:16 1.02504e-05
35 *1792:B *400:166 1.24368e-05
36 *1794:B *1794:C 2.85957e-05
37 *1796:B *1796:C 2.85957e-05
38 *1798:B *1798:C 0.000182592
39 *1798:B *414:17 4.35482e-05
40 *1799:B *1797:C 3.97677e-05
41 *1799:B *416:10 6.42095e-05
42 *1800:B *1800:A 5.33005e-05
43 *1800:B *398:101 2.48363e-05
44 *1800:B *398:118 4.70688e-05
45 *1800:B *414:93 1.21436e-05
46 *1801:B *1801:A 5.33005e-05
47 *1801:B *1801:C 7.34153e-05
48 *1802:B *398:137 0.000135028
49 *1802:B *414:110 1.27266e-05
50 *1802:B *414:122 1.30765e-05
51 *1804:B *1804:A 4.87854e-05
52 *1804:B *398:168 5.52238e-05
53 *1819:B *1819:A 7.81136e-05
54 *1819:B *1819:C 0.000130725
55 *1820:B *1820:A 0.000310967
56 *1820:B *1820:C 0.000372799
57 *1820:B *414:165 0
58 *388:8 *1793:A 2.85185e-05
59 *388:8 *398:10 6.10501e-05
60 *388:27 *398:16 0.000150625
61 *388:40 *398:16 7.90803e-05
62 *388:40 *398:24 0.000147582
63 *388:40 *398:41 3.27526e-05
64 *388:53 *398:41 0.000152796
65 *388:68 *398:41 4.63214e-05
66 *388:68 *398:56 0.000341518
67 *388:81 *414:17 6.57032e-05
68 *388:89 *1797:C 0.000113187
69 *388:89 *414:21 9.11048e-06
70 *388:102 *1797:C 2.41972e-05
71 *388:102 *398:118 2.88036e-05
72 *388:119 *398:118 0.000321865
73 *388:134 *1804:A 0
74 *388:134 *398:118 3.34366e-05
75 *388:134 *398:137 0.000140375
76 *388:155 *414:126 4.8365e-05
77 *388:168 *1804:A 5.61309e-05
78 *388:168 *414:126 6.70972e-05
79 *388:168 *414:144 5.41797e-06
80 *388:193 *1804:A 3.41517e-06
81 *388:193 *1805:B 0.000268521
82 *388:193 *389:28 9.91086e-05
83 *388:193 *389:41 0.000241702
84 *388:193 *389:50 0.000393522
85 *388:193 *389:59 0.000198501
86 *388:193 *389:74 0.000196914
87 *388:193 *389:83 0.000197262
88 *388:193 *389:107 0.000199691
89 *388:193 *389:120 5.58941e-05
90 *388:193 *398:168 1.24368e-05
91 *388:193 *415:126 2.36643e-05
92 *388:218 *1819:A 9.41642e-05
93 *388:218 *1820:C 1.02504e-05
94 *388:218 *389:120 7.83659e-05
95 *388:218 *389:137 0.00018444
96 *388:218 *415:126 0
97 *1793:D_N *388:8 0.000185124
98 *1794:D_N *1794:B 0.000136958
99 *1796:D_N *1796:B 9.60939e-05
100 *1821:A *388:193 0.000215419
101 *1821:A *388:218 1.00332e-05
102 *1914:CLK *388:81 3.15375e-05
103 *1914:D *388:81 1.46231e-05
104 *1915:D *1799:B 5.33005e-05
105 *1921:D *388:168 9.41642e-05
106 *2002:A *1799:B 5.33005e-05
107 *2002:A *388:89 3.17148e-05
108 *2002:A *388:102 0.000216457
109 *137:17 *388:218 0.000542829
110 *237:16 *1792:B 9.65075e-05
111 *237:16 *1800:B 2.21972e-05
112 *237:16 *388:40 7.38844e-05
113 *237:16 *388:53 0.000113831
114 *237:16 *388:68 0.000387169
115 *237:16 *388:89 5.64328e-05
116 *237:16 *388:102 1.30327e-05
117 *237:16 *388:119 0.000342055
118 *237:16 *388:134 0.000226289
119 *237:16 *388:155 2.2628e-05
120 *237:16 *388:193 0.00188183
121 *237:16 *388:218 0.000114698
122 *363:16 *388:193 5.61499e-05
123 *369:10 *388:102 0
124 *369:95 *388:134 0
*RES
1 *1974:X *388:8 12.6214 
2 *388:8 *388:10 4.5 
3 *388:10 *1792:B 19.3893 
4 *388:10 *388:27 1.94643 
5 *388:27 *1794:B 16.4071 
6 *388:27 *388:40 2.85714 
7 *388:40 *1795:B 13.8 
8 *388:40 *388:53 2.91071 
9 *388:53 *1796:B 15.9964 
10 *388:53 *388:68 9.48214 
11 *388:68 *1798:B 12.3179 
12 *388:68 *388:81 2.5 
13 *388:81 *388:89 7.41071 
14 *388:89 *1799:B 15.5679 
15 *388:89 *388:102 4.15179 
16 *388:102 *1800:B 15.8804 
17 *388:102 *388:119 4.52679 
18 *388:119 *1801:B 15.175 
19 *388:119 *388:134 3.54464 
20 *388:134 *1802:B 16.7018 
21 *388:134 *388:155 2.15179 
22 *388:155 *1803:B 13.8 
23 *388:155 *388:168 8.41071 
24 *388:168 *1804:B 10.2464 
25 *388:168 *388:193 42.6071 
26 *388:193 *1819:B 16.1393 
27 *388:193 *388:218 17.4821 
28 *388:218 *1818:B 13.8 
29 *388:218 *1820:B 18.7821 
30 *388:81 *1797:B 9.3 
31 *388:8 *1793:B 9.3 
*END

*D_NET *389 0.0107787
*CONN
*I *1816:B I *D sky130_fd_sc_hd__nor4b_1
*I *1817:B I *D sky130_fd_sc_hd__nor4b_1
*I *1815:B I *D sky130_fd_sc_hd__nor4b_1
*I *1814:B I *D sky130_fd_sc_hd__nor4b_1
*I *1811:B I *D sky130_fd_sc_hd__nor4b_1
*I *1813:B I *D sky130_fd_sc_hd__nor4b_1
*I *1812:B I *D sky130_fd_sc_hd__nor4b_1
*I *1809:B I *D sky130_fd_sc_hd__nor4b_1
*I *1810:B I *D sky130_fd_sc_hd__nor4b_1
*I *1808:B I *D sky130_fd_sc_hd__nor4b_1
*I *1807:B I *D sky130_fd_sc_hd__nor4b_1
*I *1805:B I *D sky130_fd_sc_hd__nor4b_1
*I *1806:B I *D sky130_fd_sc_hd__nor4b_1
*I *1975:X O *D sky130_fd_sc_hd__clkbuf_4
*CAP
1 *1816:B 0.000255382
2 *1817:B 0.000240381
3 *1815:B 7.64988e-05
4 *1814:B 0
5 *1811:B 0.000131581
6 *1813:B 7.86871e-05
7 *1812:B 0
8 *1809:B 0.000181799
9 *1810:B 0
10 *1808:B 0
11 *1807:B 8.84586e-05
12 *1805:B 0.000221441
13 *1806:B 3.12428e-05
14 *1975:X 0.000177424
15 *389:137 0.00060472
16 *389:120 0.000375443
17 *389:107 0.000261627
18 *389:87 0.000229374
19 *389:83 0.000176482
20 *389:74 0.000160119
21 *389:59 0.000322037
22 *389:50 0.00016937
23 *389:41 0.000192437
24 *389:28 0.00021798
25 *389:15 0.00026204
26 *389:6 0.000208667
27 *1805:B *1805:A 0.000162485
28 *1805:B *415:12 5.71124e-05
29 *1806:B *1806:C 1.97695e-05
30 *1807:B *456:DIODE 1.46231e-05
31 *1807:B *1807:A 2.14658e-05
32 *1807:B *1807:C 8.9971e-05
33 *1807:B *414:144 0.000135028
34 *1809:B *399:74 7.06284e-05
35 *1811:B *1811:C 2.67489e-05
36 *1811:B *399:103 3.63775e-05
37 *1811:B *415:85 0.000175892
38 *1813:B *1813:A 9.56266e-05
39 *1813:B *1813:C 2.84026e-05
40 *1813:B *399:103 6.34436e-05
41 *1813:B *415:85 1.98839e-05
42 *1815:B *399:126 1.24368e-05
43 *1815:B *399:141 2.21991e-05
44 *1816:B *1816:C 0.000251542
45 *1817:B *1816:C 0.000146737
46 *1817:B *1817:A 1.59373e-05
47 *1817:B *1817:C 4.22349e-05
48 *389:6 *1985:A 6.39452e-06
49 *389:28 *415:12 9.00185e-05
50 *389:41 *415:10 5.33614e-05
51 *389:41 *415:12 4.48383e-05
52 *389:41 *415:43 0.000149272
53 *389:41 *415:52 9.54798e-06
54 *389:50 *415:52 0.000376727
55 *389:50 *415:61 1.00332e-05
56 *389:59 *415:61 0.000184727
57 *389:74 *415:61 0.000186415
58 *389:74 *415:70 1.00332e-05
59 *389:83 *415:70 0.000115696
60 *389:83 *415:107 7.91077e-05
61 *389:87 *1811:C 0
62 *389:107 *414:144 0
63 *389:107 *415:107 0.000161464
64 *389:120 *414:144 0
65 *1805:D_N *1805:B 6.57032e-05
66 *1806:D_N *389:6 5.26625e-05
67 *1807:D_N *1807:B 0.000136958
68 *1821:A *389:120 0.00014338
69 *1933:CLK *1816:B 5.38444e-06
70 *1934:D *1816:B 5.65955e-05
71 *1949:A *1805:B 0.000114693
72 *137:17 *389:120 5.69679e-05
73 *237:16 *389:120 0.000180471
74 *237:16 *389:137 0.000192512
75 *363:16 *1805:B 1.00332e-05
76 *388:193 *1805:B 0.000268521
77 *388:193 *389:28 9.91086e-05
78 *388:193 *389:41 0.000241702
79 *388:193 *389:50 0.000393522
80 *388:193 *389:59 0.000198501
81 *388:193 *389:74 0.000196914
82 *388:193 *389:83 0.000197262
83 *388:193 *389:107 0.000199691
84 *388:193 *389:120 5.58941e-05
85 *388:218 *389:120 7.83659e-05
86 *388:218 *389:137 0.00018444
*RES
1 *1975:X *389:6 11.4786 
2 *389:6 *1806:B 10.0321 
3 *389:6 *389:15 4.5 
4 *389:15 *1805:B 19.4429 
5 *389:15 *389:28 1.33929 
6 *389:28 *1807:B 16.4071 
7 *389:28 *389:41 3.16071 
8 *389:41 *1808:B 13.8 
9 *389:41 *389:50 4.98214 
10 *389:50 *1810:B 13.8 
11 *389:50 *389:59 2.55357 
12 *389:59 *1809:B 16.8357 
13 *389:59 *389:74 2.55357 
14 *389:74 *1812:B 13.8 
15 *389:74 *389:83 2.55357 
16 *389:83 *389:87 4.92857 
17 *389:87 *1813:B 11.4786 
18 *389:87 *1811:B 12.3357 
19 *389:83 *389:107 2.55357 
20 *389:107 *1814:B 13.8 
21 *389:107 *389:120 4.73214 
22 *389:120 *1815:B 15.1929 
23 *389:120 *389:137 7.05357 
24 *389:137 *1817:B 12.6214 
25 *389:137 *1816:B 13.8714 
*END

*D_NET *390 0.0347821
*CONN
*I *429:DIODE I *D sky130_fd_sc_hd__diode_2
*I *432:DIODE I *D sky130_fd_sc_hd__diode_2
*I *1975:A I *D sky130_fd_sc_hd__clkbuf_4
*I *431:DIODE I *D sky130_fd_sc_hd__diode_2
*I *1974:A I *D sky130_fd_sc_hd__buf_4
*I *430:DIODE I *D sky130_fd_sc_hd__diode_2
*I *1973:A I *D sky130_fd_sc_hd__buf_2
*I *1972:A I *D sky130_fd_sc_hd__buf_4
*I *1970:A I *D sky130_fd_sc_hd__buf_4
*I *1971:A I *D sky130_fd_sc_hd__clkbuf_4
*I *428:DIODE I *D sky130_fd_sc_hd__diode_2
*I *1968:A I *D sky130_fd_sc_hd__buf_4
*I *425:DIODE I *D sky130_fd_sc_hd__diode_2
*I *426:DIODE I *D sky130_fd_sc_hd__diode_2
*I *1969:A I *D sky130_fd_sc_hd__clkbuf_4
*I *427:DIODE I *D sky130_fd_sc_hd__diode_2
*I *1976:X O *D sky130_fd_sc_hd__clkbuf_4
*CAP
1 *429:DIODE 0
2 *432:DIODE 0.000115082
3 *1975:A 0
4 *431:DIODE 0.000226905
5 *1974:A 2.3671e-05
6 *430:DIODE 0
7 *1973:A 8.19041e-05
8 *1972:A 0
9 *1970:A 2.12465e-05
10 *1971:A 0.000123543
11 *428:DIODE 7.70325e-05
12 *1968:A 0.000180839
13 *425:DIODE 0
14 *426:DIODE 0
15 *1969:A 0.000479508
16 *427:DIODE 7.13755e-05
17 *1976:X 0.000416266
18 *390:195 0.00156563
19 *390:180 0.00187533
20 *390:169 0.00180644
21 *390:153 0.000113063
22 *390:149 0.00285297
23 *390:118 0.00158421
24 *390:114 0.000460428
25 *390:45 0.00061511
26 *390:43 0.00037671
27 *390:37 0.00283453
28 *390:35 0.00269346
29 *390:33 0.00061192
30 *390:20 0.000548457
31 *390:16 0.000897408
32 *390:14 0.00121302
33 *432:DIODE *1985:A 8.27532e-05
34 *432:DIODE *398:168 0.000175519
35 *432:DIODE *414:144 1.00332e-05
36 *1969:A *391:10 4.6176e-05
37 *1969:A *392:18 7.24209e-05
38 *390:14 *412:59 0
39 *390:14 *412:61 0
40 *390:33 *405:89 0
41 *390:33 *405:96 0
42 *390:35 *405:70 0
43 *390:35 *405:77 0
44 *390:35 *405:89 0
45 *390:37 *1850:RESET_B 0
46 *390:37 *1866:RESET_B 0
47 *390:37 *404:130 0
48 *390:37 *404:137 0
49 *390:37 *404:148 0
50 *390:37 *405:23 0
51 *390:37 *405:30 0
52 *390:37 *405:42 0
53 *390:37 *405:49 0
54 *390:37 *405:56 0
55 *390:37 *405:63 0
56 *390:43 *1848:RESET_B 0
57 *390:43 *1850:RESET_B 0
58 *390:149 *1771:A 2.05629e-05
59 *390:149 *400:162 5.08481e-05
60 *390:149 *412:47 6.02043e-05
61 *390:149 *416:126 0.000698229
62 *390:169 *400:162 0.000946195
63 *390:169 *400:196 0
64 *390:180 *400:196 0
65 *390:195 *1985:A 9.60939e-05
66 *390:195 *400:196 0
67 *390:195 *400:200 0.00120092
68 *390:195 *414:10 0
69 *390:195 *414:87 0
70 *390:195 *416:39 0.000468845
71 *1733:D_N *1969:A 2.07878e-05
72 *1771:B *390:118 4.29615e-05
73 *1771:B *390:149 0.000132071
74 *1779:D_N *1973:A 9.60875e-05
75 *1779:D_N *390:153 1.39841e-05
76 *1793:D_N *1974:A 5.52302e-05
77 *1794:D_N *431:DIODE 0.000114631
78 *1806:D_N *432:DIODE 9.60875e-05
79 *1806:D_N *390:195 9.60939e-05
80 *1847:D *1969:A 5.8506e-05
81 *1847:D *390:43 2.15245e-05
82 *1847:D *390:45 4.55227e-05
83 *1849:CLK *1968:A 0.000138769
84 *1849:D *1968:A 2.61099e-05
85 *1851:CLK *390:37 0.00043112
86 *1851:CLK *390:43 9.25014e-06
87 *1852:CLK *390:37 0
88 *1854:D *390:37 3.25078e-05
89 *1856:D *390:37 0.000442792
90 *1858:D *390:37 0.000110386
91 *1869:CLK *390:37 0.000200413
92 *1870:CLK *390:37 0.00015234
93 *1870:D *390:37 0.000124723
94 *1873:D *428:DIODE 9.41642e-05
95 *1875:CLK *1971:A 5.52302e-05
96 *1875:D *1971:A 9.41359e-05
97 *1877:D *427:DIODE 9.58126e-05
98 *1877:D *390:33 9.71197e-05
99 *1878:CLK *390:20 0.000154762
100 *1879:CLK *390:16 4.46186e-06
101 *1879:CLK *390:20 0.000232216
102 *1879:CLK *390:33 0.000358853
103 *1879:CLK *390:35 0.00010326
104 *1879:D *1970:A 5.52238e-05
105 *1879:D *390:20 4.42686e-05
106 *1880:D *390:16 8.07879e-05
107 *1881:D *390:16 4.89264e-05
108 *1886:CLK *390:14 0.000123288
109 *1966:A *390:149 0
110 *361:18 *390:14 0.000136676
111 *361:18 *390:149 4.49064e-05
112 *374:110 *390:43 0.000293408
113 *375:12 *390:35 0.000251915
114 *375:14 *390:35 7.15449e-05
115 *375:14 *390:37 7.83587e-05
116 *375:16 *390:37 0.000251915
117 *376:10 *390:37 0.00015304
118 *376:14 *390:37 0.00114218
119 *376:43 *390:37 0.000589019
120 *376:71 *390:37 0.000197984
121 *377:12 *390:37 0
122 *377:73 *390:20 5.59013e-05
123 *379:25 *390:14 5.41794e-05
124 *380:12 *1970:A 7.43578e-06
125 *380:12 *390:16 0.000138178
126 *380:25 *390:16 0.000212138
127 *380:38 *390:16 0.000154762
128 *380:51 *390:16 0.000222892
129 *380:62 *390:16 0.00023995
130 *386:8 *390:118 5.49489e-05
131 *386:25 *390:149 0
132 *386:170 *390:149 0.000531466
133 *387:10 *1973:A 0
*RES
1 *1976:X *390:14 20.8 
2 *390:14 *390:16 15.3036 
3 *390:16 *390:20 10.0893 
4 *390:20 *427:DIODE 10.2464 
5 *390:20 *390:33 10.5357 
6 *390:33 *390:35 5.28571 
7 *390:35 *390:37 58.1071 
8 *390:37 *390:43 9.21429 
9 *390:43 *390:45 1.76786 
10 *390:45 *1969:A 24.8893 
11 *390:45 *426:DIODE 9.3 
12 *390:43 *425:DIODE 9.3 
13 *390:37 *1968:A 16.7286 
14 *390:35 *428:DIODE 14.7464 
15 *390:33 *1971:A 15.9786 
16 *390:16 *1970:A 14.3357 
17 *390:14 *390:114 6.28571 
18 *390:114 *390:118 5.89286 
19 *390:118 *1972:A 9.3 
20 *390:118 *390:149 41.6964 
21 *390:149 *390:153 5.03571 
22 *390:153 *1973:A 10.9786 
23 *390:153 *430:DIODE 9.3 
24 *390:149 *390:169 33.5179 
25 *390:169 *1974:A 14.3357 
26 *390:169 *390:180 3.46429 
27 *390:180 *431:DIODE 16.8 
28 *390:180 *390:195 35.9286 
29 *390:195 *1975:A 9.3 
30 *390:195 *432:DIODE 21.4964 
31 *390:114 *429:DIODE 9.3 
*END

*D_NET *391 0.0181134
*CONN
*I *1736:C I *D sky130_fd_sc_hd__nor4b_1
*I *1721:C I *D sky130_fd_sc_hd__nor4b_1
*I *1722:C I *D sky130_fd_sc_hd__nor4b_1
*I *1720:C I *D sky130_fd_sc_hd__nor4b_1
*I *1717:C I *D sky130_fd_sc_hd__nor4b_1
*I *1719:C I *D sky130_fd_sc_hd__nor4b_1
*I *1715:C I *D sky130_fd_sc_hd__nor4b_1
*I *1716:C I *D sky130_fd_sc_hd__nor4b_1
*I *1714:C I *D sky130_fd_sc_hd__nor4b_1
*I *1713:C I *D sky130_fd_sc_hd__nor4b_1
*I *1711:C I *D sky130_fd_sc_hd__nor4b_1
*I *1709:C I *D sky130_fd_sc_hd__nor4b_1
*I *1710:C I *D sky130_fd_sc_hd__nor4b_1
*I *1708:C I *D sky130_fd_sc_hd__nor4b_1
*I *1712:C I *D sky130_fd_sc_hd__nor4b_1
*I *1718:C I *D sky130_fd_sc_hd__nor4b_1
*I *1977:X O *D sky130_fd_sc_hd__buf_4
*CAP
1 *1736:C 0.000282415
2 *1721:C 0
3 *1722:C 0.000230033
4 *1720:C 0.000172923
5 *1717:C 6.22439e-05
6 *1719:C 0.000121156
7 *1715:C 1.69531e-05
8 *1716:C 0.000108034
9 *1714:C 0
10 *1713:C 0.000101059
11 *1711:C 2.677e-05
12 *1709:C 5.72772e-05
13 *1710:C 8.5275e-05
14 *1708:C 6.23249e-05
15 *1712:C 0
16 *1718:C 0
17 *1977:X 7.79287e-05
18 *391:183 0.000305081
19 *391:105 0.000127829
20 *391:72 0.000264653
21 *391:70 0.000293887
22 *391:68 0.000548167
23 *391:57 0.000528148
24 *391:53 0.000260396
25 *391:49 0.00034911
26 *391:43 0.000157378
27 *391:39 0.00034991
28 *391:33 0.000298128
29 *391:29 0.000362828
30 *391:20 0.000461456
31 *391:10 0.00266169
32 *391:8 0.0026081
33 *1736:C *416:165 0.00027068
34 *391:8 *400:26 6.07232e-05
35 *391:10 *435:DIODE 5.33882e-05
36 *391:10 *1724:C 5.60819e-05
37 *391:10 *392:30 0
38 *391:10 *400:26 0.000141366
39 *391:10 *416:173 0.000147725
40 *1708:A *1708:C 0.000143375
41 *1710:A *1710:C 2.93157e-05
42 *1710:D_N *1708:C 0.000141729
43 *1710:D_N *1710:C 0.000183726
44 *1712:B *391:57 0.000172085
45 *1712:D_N *391:68 0
46 *1713:A *1713:C 0.000147965
47 *1713:B *1713:C 0.000163879
48 *1713:D_N *1711:C 0.000141729
49 *1713:D_N *1713:C 3.37161e-05
50 *1713:D_N *391:68 0
51 *1715:A *1715:C 5.33005e-05
52 *1716:B *1715:C 5.33005e-05
53 *1716:D_N *1716:C 4.38128e-05
54 *1716:D_N *391:39 1.90936e-05
55 *1716:D_N *391:43 0.000138585
56 *1716:D_N *391:49 0.000150618
57 *1716:D_N *391:53 5.52302e-05
58 *1717:A *1717:C 2.2549e-05
59 *1717:B *1717:C 6.05299e-05
60 *1718:A *1722:C 2.62951e-05
61 *1718:A *391:20 0.000341296
62 *1718:B *391:20 3.08664e-05
63 *1718:B *391:29 4.53295e-05
64 *1718:D_N *391:20 1.33343e-05
65 *1719:B *1719:C 0.000139637
66 *1719:B *391:39 9.41642e-05
67 *1719:D_N *391:33 0.000159763
68 *1719:D_N *391:39 0.000247064
69 *1720:B *1720:C 6.12283e-05
70 *1720:B *391:29 1.58163e-05
71 *1720:D_N *1720:C 2.89114e-05
72 *1720:D_N *391:20 0
73 *1720:D_N *391:33 4.22135e-06
74 *1722:B *1722:C 1.46231e-05
75 *1723:D_N *391:10 0
76 *1724:B *391:10 5.48715e-05
77 *1736:A *1736:C 0.000100684
78 *1736:B *1736:C 1.59373e-05
79 *1736:D_N *1736:C 1.21258e-05
80 *1822:D *1710:C 0.000346541
81 *1823:D *1709:C 2.84026e-05
82 *1825:D *1713:C 1.10868e-05
83 *1828:CLK *1716:C 1.17091e-05
84 *1828:D *1716:C 6.74893e-05
85 *1828:D *391:53 2.77289e-05
86 *1832:CLK *1720:C 8.29398e-06
87 *1832:D *1720:C 1.03906e-05
88 *1834:D *1720:C 5.38444e-06
89 *1835:D *1722:C 0.000356629
90 *1969:A *391:10 4.6176e-05
91 *381:6 *1736:C 1.54142e-05
92 *381:18 *1722:C 0
93 *381:18 *391:10 0
94 *381:28 *1722:C 0.000178939
95 *381:46 *1722:C 0.000173328
96 *381:56 *391:39 0
97 *381:56 *391:43 6.98794e-05
98 *381:58 *391:43 4.46186e-06
99 *381:58 *391:49 7.8327e-05
100 *381:92 *391:70 2.59677e-05
101 *381:96 *1708:C 2.41972e-05
102 *381:96 *391:70 2.71557e-05
103 *381:96 *391:72 8.02791e-05
104 *381:120 *1709:C 7.57312e-05
105 *382:33 *1722:C 2.16394e-05
106 *382:33 *391:33 7.78226e-05
107 *382:35 *391:33 8.90892e-05
108 *382:35 *391:39 1.00332e-05
109 *382:37 *391:39 0.000266283
110 *382:39 *391:39 3.10819e-05
111 *382:49 *391:57 3.92779e-05
112 *382:49 *391:68 0.000597986
113 *382:49 *391:70 5.33614e-05
114 *382:51 *1711:C 6.96796e-05
115 *382:51 *1713:C 5.33005e-05
116 *382:88 *1713:C 0.000181796
117 *382:120 *391:53 7.66908e-05
*RES
1 *1977:X *391:8 15.4429 
2 *391:8 *391:10 39.1339 
3 *391:10 *391:20 11.6518 
4 *391:20 *1718:C 9.3 
5 *391:20 *391:29 2.19643 
6 *391:29 *391:33 6.75 
7 *391:33 *391:39 9.21429 
8 *391:39 *391:43 6.44643 
9 *391:43 *391:49 6.875 
10 *391:49 *391:53 3.01786 
11 *391:53 *391:57 7.05357 
12 *391:57 *1712:C 13.8 
13 *391:57 *391:68 9.07143 
14 *391:68 *391:70 2.25 
15 *391:70 *391:72 2.25 
16 *391:72 *1708:C 15.8893 
17 *391:72 *1710:C 17.2286 
18 *391:70 *1709:C 15.1571 
19 *391:68 *391:105 4.5 
20 *391:105 *1711:C 10.6571 
21 *391:105 *1713:C 13.1571 
22 *391:53 *1714:C 9.3 
23 *391:49 *1716:C 11.4964 
24 *391:43 *1715:C 14.3357 
25 *391:39 *1719:C 11.4964 
26 *391:33 *1717:C 15.1929 
27 *391:29 *1720:C 12.3179 
28 *391:10 *391:183 1.34821 
29 *391:183 *1722:C 20.05 
30 *391:183 *1721:C 13.8 
31 *391:8 *1736:C 19.2821 
*END

*D_NET *392 0.00956177
*CONN
*I *1735:A I *D sky130_fd_sc_hd__nor4b_1
*I *1734:A I *D sky130_fd_sc_hd__nor4b_1
*I *1733:A I *D sky130_fd_sc_hd__nor4b_1
*I *1732:A I *D sky130_fd_sc_hd__nor4b_1
*I *1731:A I *D sky130_fd_sc_hd__nor4b_1
*I *1730:A I *D sky130_fd_sc_hd__nor4b_1
*I *1729:A I *D sky130_fd_sc_hd__nor4b_1
*I *1728:A I *D sky130_fd_sc_hd__nor4b_1
*I *1727:A I *D sky130_fd_sc_hd__nor4b_1
*I *1726:A I *D sky130_fd_sc_hd__nor4b_1
*I *1725:A I *D sky130_fd_sc_hd__nor4b_1
*I *1723:A I *D sky130_fd_sc_hd__nor4b_1
*I *1724:A I *D sky130_fd_sc_hd__nor4b_1
*I *1978:X O *D sky130_fd_sc_hd__clkbuf_4
*CAP
1 *1735:A 0
2 *1734:A 0.000140655
3 *1733:A 0
4 *1732:A 8.03745e-05
5 *1731:A 0
6 *1730:A 8.03745e-05
7 *1729:A 0
8 *1728:A 0.000124078
9 *1727:A 0
10 *1726:A 0
11 *1725:A 0
12 *1723:A 8.16045e-05
13 *1724:A 0.000130178
14 *1978:X 0.000197265
15 *392:46 0.000292645
16 *392:42 0.000314881
17 *392:36 0.000421691
18 *392:30 0.000308818
19 *392:28 0.000341396
20 *392:26 0.000197382
21 *392:24 0.000279827
22 *392:22 0.000199452
23 *392:20 0.000279827
24 *392:18 0.000182658
25 *392:16 0.000329762
26 *392:14 0.000301959
27 *1723:A *1724:C 3.58558e-05
28 *1728:A *1728:C 7.10877e-05
29 *1734:A *1734:C 0.000156444
30 *392:14 *393:6 0.000185118
31 *392:14 *393:10 1.08847e-05
32 *392:14 *416:173 0.000180741
33 *1723:B *1723:A 0.000169844
34 *1723:D_N *1723:A 1.00332e-05
35 *1725:B *392:46 3.25724e-05
36 *1725:D_N *1724:A 0.000163107
37 *1725:D_N *392:46 0.000175892
38 *1726:B *392:36 0.000175892
39 *1726:D_N *392:36 0.00017754
40 *1728:B *1728:A 0.000178847
41 *1730:B *1730:A 0.000178847
42 *1730:D_N *1730:A 0.000177821
43 *1732:B *1732:A 0.000178847
44 *1732:D_N *1732:A 0.000177821
45 *1734:B *1734:A 2.41857e-05
46 *1734:D_N *1734:A 8.85631e-05
47 *1735:B *392:14 1.00332e-05
48 *1735:B *392:16 0.000173601
49 *1735:B *392:18 7.07214e-05
50 *1735:D_N *392:14 0.000231925
51 *1838:D *1724:A 5.49489e-05
52 *1838:D *392:46 0.000209388
53 *1969:A *392:18 7.24209e-05
54 *381:18 *392:14 5.79582e-06
55 *382:18 *392:42 0.000388132
56 *383:8 *392:18 0.000114972
57 *383:10 *392:18 1.00332e-05
58 *383:10 *392:20 0.000165946
59 *383:12 *392:20 3.27526e-05
60 *383:12 *392:22 0.000186418
61 *383:14 *392:22 1.00332e-05
62 *383:14 *392:24 0.000165946
63 *383:16 *392:24 3.27526e-05
64 *383:16 *392:26 0.000186418
65 *383:18 *392:26 1.00332e-05
66 *383:18 *392:28 0.000200345
67 *383:18 *392:30 4.49045e-05
68 *383:20 *392:30 0.000140749
69 *383:22 *392:30 1.00332e-05
70 *383:22 *392:36 0.000141579
71 *383:24 *392:36 5.7119e-05
72 *391:10 *392:30 0
*RES
1 *1978:X *392:14 19.3179 
2 *392:14 *392:16 2.25 
3 *392:16 *392:18 2.55357 
4 *392:18 *392:20 2.55357 
5 *392:20 *392:22 2.55357 
6 *392:22 *392:24 2.55357 
7 *392:24 *392:26 2.55357 
8 *392:26 *392:28 2.55357 
9 *392:28 *392:30 2.55357 
10 *392:30 *392:36 9.23214 
11 *392:36 *392:42 13.9821 
12 *392:42 *392:46 2.60714 
13 *392:46 *1724:A 12.4607 
14 *392:46 *1723:A 20.55 
15 *392:42 *1725:A 9.3 
16 *392:36 *1726:A 9.3 
17 *392:30 *1727:A 13.8 
18 *392:28 *1728:A 16.4071 
19 *392:26 *1729:A 13.8 
20 *392:24 *1730:A 15.9786 
21 *392:22 *1731:A 13.8 
22 *392:20 *1732:A 15.9786 
23 *392:18 *1733:A 13.8 
24 *392:16 *1734:A 17.1393 
25 *392:14 *1735:A 13.8 
*END

*D_NET *393 0.0108302
*CONN
*I *1735:C I *D sky130_fd_sc_hd__nor4b_1
*I *1734:C I *D sky130_fd_sc_hd__nor4b_1
*I *1733:C I *D sky130_fd_sc_hd__nor4b_1
*I *1732:C I *D sky130_fd_sc_hd__nor4b_1
*I *1731:C I *D sky130_fd_sc_hd__nor4b_1
*I *1730:C I *D sky130_fd_sc_hd__nor4b_1
*I *1729:C I *D sky130_fd_sc_hd__nor4b_1
*I *1728:C I *D sky130_fd_sc_hd__nor4b_1
*I *1727:C I *D sky130_fd_sc_hd__nor4b_1
*I *1726:C I *D sky130_fd_sc_hd__nor4b_1
*I *1725:C I *D sky130_fd_sc_hd__nor4b_1
*I *1723:C I *D sky130_fd_sc_hd__nor4b_1
*I *1724:C I *D sky130_fd_sc_hd__nor4b_1
*I *1979:X O *D sky130_fd_sc_hd__clkbuf_4
*CAP
1 *1735:C 0
2 *1734:C 0.000199727
3 *1733:C 0
4 *1732:C 0.000203753
5 *1731:C 0
6 *1730:C 0.000198718
7 *1729:C 0
8 *1728:C 0.000171999
9 *1727:C 0
10 *1726:C 0.000204448
11 *1725:C 0.000190974
12 *1723:C 3.82418e-05
13 *1724:C 0.000281988
14 *1979:X 0.000101508
15 *393:32 0.000400276
16 *393:28 0.000378008
17 *393:26 0.000349207
18 *393:24 0.000105206
19 *393:22 0.000298573
20 *393:20 0.000131118
21 *393:18 0.000308468
22 *393:16 0.00010975
23 *393:14 0.000313503
24 *393:12 0.000114594
25 *393:10 0.000319943
26 *393:6 0.000144902
27 *1723:A *1724:C 3.58558e-05
28 *1723:B *393:32 0.000193125
29 *1724:B *1724:C 1.00332e-05
30 *1725:B *1725:C 0.000212562
31 *1726:B *1726:C 0.000215088
32 *1728:A *1728:C 7.10877e-05
33 *1728:B *1728:C 1.46231e-05
34 *1730:B *1730:C 0.000215518
35 *1732:B *1732:C 0.000215518
36 *1734:A *1734:C 0.000156444
37 *1734:B *1734:C 1.03105e-05
38 *1735:B *393:10 0.000119618
39 *1735:B *393:12 0.000127446
40 *1735:D_N *393:6 0.000143375
41 *1838:CLK *1725:C 8.29398e-06
42 *1838:D *1725:C 1.13883e-05
43 *1839:D *1725:C 1.8461e-05
44 *1842:CLK *1728:C 8.29398e-06
45 *1842:D *1728:C 5.38444e-06
46 *1844:CLK *1730:C 1.17091e-05
47 *1848:CLK *1734:C 1.17091e-05
48 *381:18 *393:10 0.000151333
49 *381:18 *393:12 0.000242913
50 *381:18 *393:14 0.000153047
51 *381:18 *393:16 0.000245335
52 *381:18 *393:18 0.000153047
53 *381:18 *393:20 0.000245335
54 *381:18 *393:22 0.000202128
55 *381:18 *393:24 0.000196656
56 *381:18 *393:26 0.000153047
57 *381:18 *393:28 0.000388132
58 *381:18 *393:32 0.000191403
59 *383:8 *393:12 0.000117189
60 *383:8 *393:14 1.02504e-05
61 *383:10 *393:14 0.000144512
62 *383:10 *393:16 3.34366e-05
63 *383:12 *393:16 0.00021262
64 *383:12 *393:18 1.02504e-05
65 *383:14 *393:18 0.000144512
66 *383:14 *393:20 3.34366e-05
67 *383:16 *393:20 0.00021262
68 *383:16 *393:22 1.02504e-05
69 *383:18 *393:22 0.000194299
70 *383:18 *393:24 5.33072e-05
71 *383:20 *393:24 0.000141722
72 *383:20 *393:26 1.02504e-05
73 *383:22 *393:26 0.000144512
74 *383:22 *393:28 1.02504e-05
75 *383:24 *393:28 0.000381318
76 *383:24 *393:32 1.02504e-05
77 *383:37 *1725:C 0
78 *391:10 *1724:C 5.60819e-05
79 *392:14 *393:6 0.000185118
80 *392:14 *393:10 1.08847e-05
*RES
1 *1979:X *393:6 11.8893 
2 *393:6 *393:10 6.44643 
3 *393:10 *393:12 3.16071 
4 *393:12 *393:14 1.94643 
5 *393:14 *393:16 3.16071 
6 *393:16 *393:18 1.94643 
7 *393:18 *393:20 3.16071 
8 *393:20 *393:22 2.55357 
9 *393:22 *393:24 2.55357 
10 *393:24 *393:26 1.94643 
11 *393:26 *393:28 4.98214 
12 *393:28 *393:32 7.05357 
13 *393:32 *1724:C 22.1214 
14 *393:32 *1723:C 10.0321 
15 *393:28 *1725:C 16.7107 
16 *393:26 *1726:C 16.7107 
17 *393:24 *1727:C 13.8 
18 *393:22 *1728:C 16.8357 
19 *393:20 *1729:C 13.8 
20 *393:18 *1730:C 16.7107 
21 *393:16 *1731:C 13.8 
22 *393:14 *1732:C 16.7107 
23 *393:12 *1733:C 13.8 
24 *393:10 *1734:C 16.7107 
25 *393:6 *1735:C 9.3 
*END

*D_NET *394 0.0205025
*CONN
*I *1738:C I *D sky130_fd_sc_hd__nor4b_1
*I *1739:C I *D sky130_fd_sc_hd__nor4b_1
*I *1741:C I *D sky130_fd_sc_hd__nor4b_1
*I *1745:C I *D sky130_fd_sc_hd__nor4b_1
*I *1746:C I *D sky130_fd_sc_hd__nor4b_1
*I *1749:C I *D sky130_fd_sc_hd__nor4b_1
*I *1762:C I *D sky130_fd_sc_hd__nor4b_1
*I *1764:C I *D sky130_fd_sc_hd__nor4b_1
*I *1763:C I *D sky130_fd_sc_hd__nor4b_1
*I *1747:C I *D sky130_fd_sc_hd__nor4b_1
*I *1748:C I *D sky130_fd_sc_hd__nor4b_1
*I *1744:C I *D sky130_fd_sc_hd__nor4b_1
*I *1742:C I *D sky130_fd_sc_hd__nor4b_1
*I *1743:C I *D sky130_fd_sc_hd__nor4b_1
*I *1740:C I *D sky130_fd_sc_hd__nor4b_1
*I *1737:C I *D sky130_fd_sc_hd__nor4b_1
*I *1980:X O *D sky130_fd_sc_hd__buf_4
*CAP
1 *1738:C 0
2 *1739:C 0.000191793
3 *1741:C 0
4 *1745:C 0.000103436
5 *1746:C 0.000104247
6 *1749:C 0.000362112
7 *1762:C 0.000116229
8 *1764:C 0.00010352
9 *1763:C 0
10 *1747:C 5.28099e-06
11 *1748:C 0.000221144
12 *1744:C 8.07776e-05
13 *1742:C 3.04135e-05
14 *1743:C 0.000136257
15 *1740:C 2.38895e-05
16 *1737:C 5.95512e-05
17 *1980:X 0.000359311
18 *394:163 0.000187724
19 *394:157 0.0015738
20 *394:147 0.00180383
21 *394:134 0.000310227
22 *394:128 0.000488822
23 *394:113 0.000498708
24 *394:100 0.000388169
25 *394:94 0.000334945
26 *394:81 0.000159545
27 *394:68 0.000280075
28 *394:57 0.000379851
29 *394:47 0.000757754
30 *394:35 0.000861804
31 *394:29 0.000380691
32 *394:10 0.000599724
33 *1737:C *1737:A 6.85983e-05
34 *1737:C *416:163 5.41794e-05
35 *1739:C *1739:A 2.44318e-05
36 *1743:C *1743:A 9.41642e-05
37 *1744:C *1744:A 1.21258e-05
38 *1745:C *1745:A 1.98839e-05
39 *1746:C *1746:A 5.56205e-05
40 *1747:C *403:42 1.37693e-05
41 *1748:C *1748:A 0.000181374
42 *1749:C *1749:A 1.8729e-05
43 *1749:C *403:42 9.38543e-05
44 *1762:C *403:33 2.36643e-05
45 *1764:C *1764:A 3.90883e-05
46 *394:10 *1737:A 0.000136676
47 *394:10 *1980:A 3.18676e-05
48 *394:10 *400:48 2.89016e-05
49 *394:29 *433:DIODE 7.83587e-05
50 *394:29 *1737:A 1.18064e-05
51 *394:29 *400:69 5.33005e-05
52 *394:29 *400:82 2.24646e-05
53 *394:29 *416:163 0.000116481
54 *394:35 *1737:A 5.37741e-06
55 *394:35 *403:70 3.71887e-05
56 *394:35 *403:72 8.2377e-05
57 *394:47 *403:66 0.000178847
58 *394:57 *1740:A 1.73088e-05
59 *394:57 *400:82 1.87097e-05
60 *394:57 *403:70 4.13122e-06
61 *394:68 *400:82 0.000146316
62 *394:68 *403:58 5.56943e-05
63 *394:68 *403:66 1.88398e-05
64 *394:81 *400:82 0.000243627
65 *394:81 *403:58 1.91414e-05
66 *394:94 *400:82 0.000173384
67 *394:94 *403:54 4.22135e-06
68 *394:100 *403:52 0.00011556
69 *394:100 *403:54 5.40539e-05
70 *394:113 *403:50 0.000114836
71 *394:113 *403:52 7.98318e-05
72 *394:128 *403:46 2.27129e-05
73 *394:128 *403:48 0.000212301
74 *394:128 *403:50 5.7119e-05
75 *394:134 *1746:A 6.05161e-06
76 *394:147 *403:33 0
77 *394:157 *403:33 0.00283284
78 *394:157 *403:42 5.20669e-05
79 *394:157 *416:130 2.26327e-05
80 *394:163 *403:21 5.35405e-05
81 *394:163 *416:128 4.48206e-05
82 *394:163 *416:130 2.19778e-05
83 *1737:D_N *394:10 8.54229e-05
84 *1738:B *394:29 3.69621e-05
85 *1738:D_N *394:29 3.49887e-05
86 *1739:B *1739:C 1.74352e-05
87 *1739:B *394:47 9.35794e-06
88 *1739:D_N *1739:C 0.000226271
89 *1739:D_N *394:47 8.33274e-05
90 *1740:B *1740:C 5.49544e-05
91 *1740:B *394:57 4.61327e-05
92 *1741:B *394:47 2.23592e-05
93 *1741:D_N *394:68 1.94945e-05
94 *1742:B *1742:C 5.33005e-05
95 *1743:B *1743:C 2.23592e-05
96 *1743:D_N *394:81 0.000198698
97 *1743:D_N *394:94 0.000153663
98 *1744:B *1744:C 3.93346e-05
99 *1745:B *1745:C 1.46231e-05
100 *1745:D_N *1745:C 5.33005e-05
101 *1745:D_N *394:100 0.000135028
102 *1746:B *1746:C 1.95962e-05
103 *1746:D_N *394:134 3.67252e-05
104 *1747:B *1747:C 6.7e-06
105 *1747:D_N *394:157 1.74352e-05
106 *1748:B *1748:C 2.48363e-05
107 *1749:B *1749:C 4.68718e-05
108 *1749:D_N *1749:C 4.58194e-05
109 *1749:D_N *394:147 0
110 *1762:D_N *1762:C 8.67797e-05
111 *1762:D_N *394:157 0.000226417
112 *1763:B *1764:C 0.000180951
113 *1764:D_N *1764:C 0.000100685
114 *1852:CLK *394:29 3.41517e-06
115 *1852:CLK *394:35 0
116 *1854:D *1739:C 9.90367e-05
117 *1855:D *394:57 2.8078e-05
118 *1860:CLK *1748:C 3.41517e-06
119 *1862:D *1749:C 1.13883e-05
120 *1878:D *1764:C 0.000356126
121 *1961:A *394:157 0.000481949
122 *1962:A *394:157 0.000459419
123 *1964:A *394:157 0
124 *384:12 *1764:C 1.62838e-05
125 *384:18 *1764:C 1.55909e-05
126 *384:50 *394:57 1.62621e-05
127 *384:56 *394:57 7.14923e-05
128 *384:66 *394:47 6.16848e-05
*RES
1 *1980:X *394:10 20.1036 
2 *394:10 *1737:C 15.0679 
3 *394:10 *394:29 8.64286 
4 *394:29 *394:35 12.1607 
5 *394:35 *394:47 15.9464 
6 *394:47 *394:57 14.3571 
7 *394:57 *1740:C 9.83571 
8 *394:57 *394:68 6.44643 
9 *394:68 *1743:C 15.9964 
10 *394:68 *394:81 3.16071 
11 *394:81 *1742:C 14.3357 
12 *394:81 *394:94 6.75 
13 *394:94 *394:100 8.10714 
14 *394:100 *1744:C 15.175 
15 *394:100 *394:113 2.55357 
16 *394:113 *1748:C 17.5321 
17 *394:113 *394:128 8.26786 
18 *394:128 *394:134 7.5 
19 *394:134 *1747:C 13.9384 
20 *394:134 *394:147 5.53571 
21 *394:147 *394:157 49.3036 
22 *394:157 *394:163 11.25 
23 *394:163 *1763:C 9.3 
24 *394:163 *1764:C 13.5321 
25 *394:157 *1762:C 11.4786 
26 *394:147 *1749:C 14.2643 
27 *394:128 *1746:C 10.9786 
28 *394:94 *1745:C 11.0679 
29 *394:47 *1741:C 9.3 
30 *394:35 *1739:C 13.5679 
31 *394:29 *1738:C 9.3 
*END

*D_NET *395 0.00934401
*CONN
*I *1761:C I *D sky130_fd_sc_hd__nor4b_1
*I *1760:C I *D sky130_fd_sc_hd__nor4b_1
*I *1759:C I *D sky130_fd_sc_hd__nor4b_1
*I *1758:C I *D sky130_fd_sc_hd__nor4b_1
*I *1756:C I *D sky130_fd_sc_hd__nor4b_1
*I *1757:C I *D sky130_fd_sc_hd__nor4b_1
*I *1754:C I *D sky130_fd_sc_hd__nor4b_1
*I *1755:C I *D sky130_fd_sc_hd__nor4b_1
*I *1753:C I *D sky130_fd_sc_hd__nor4b_1
*I *1752:C I *D sky130_fd_sc_hd__nor4b_1
*I *1751:C I *D sky130_fd_sc_hd__nor4b_1
*I *1750:C I *D sky130_fd_sc_hd__nor4b_1
*I *1981:X O *D sky130_fd_sc_hd__clkbuf_4
*CAP
1 *1761:C 0.000187745
2 *1760:C 3.0413e-05
3 *1759:C 0.000160725
4 *1758:C 6.81495e-05
5 *1756:C 2.55335e-05
6 *1757:C 0.000165727
7 *1754:C 1.21804e-05
8 *1755:C 9.44873e-05
9 *1753:C 0.000198557
10 *1752:C 2.53826e-05
11 *1751:C 0.000123318
12 *1750:C 5.57384e-05
13 *1981:X 0.000147998
14 *395:128 0.000396421
15 *395:115 0.000367913
16 *395:104 0.000163693
17 *395:93 0.000152025
18 *395:80 0.000313721
19 *395:69 0.000212039
20 *395:58 0.000277996
21 *395:34 0.00022394
22 *395:32 0.000165141
23 *395:19 0.000270138
24 *395:6 0.000257186
25 *1750:C *1750:A 2.00031e-05
26 *1750:C *1981:A 1.04232e-05
27 *1751:C *1753:A 0.000137983
28 *1755:C *1755:A 2.36643e-05
29 *1757:C *1757:A 0.000114279
30 *1758:C *1758:A 2.84026e-05
31 *1758:C *411:30 8.23811e-05
32 *1759:C *411:30 0.000112625
33 *1760:C *411:17 5.49489e-05
34 *1761:C *1761:A 2.58997e-05
35 *395:6 *1981:A 4.63768e-05
36 *395:19 *400:99 9.80405e-05
37 *395:32 *400:99 1.90936e-05
38 *1750:B *395:19 4.84319e-05
39 *1750:B *395:32 4.9663e-06
40 *1751:B *1751:C 0.000170484
41 *1753:B *1753:C 0.000172085
42 *1753:D_N *1751:C 5.49489e-05
43 *1753:D_N *395:32 0.000222528
44 *1753:D_N *395:58 0.000149329
45 *1754:B *1754:C 5.49489e-05
46 *1755:D_N *1755:C 5.49544e-05
47 *1756:B *1756:C 5.49489e-05
48 *1757:B *1757:C 1.13883e-05
49 *1758:B *1758:C 4.35597e-05
50 *1759:D_N *1758:C 5.49489e-05
51 *1759:D_N *395:115 5.59013e-05
52 *1759:D_N *395:128 0.000154901
53 *1760:B *1760:C 5.79701e-05
54 *1761:B *1761:C 9.65791e-05
55 *1761:D_N *1761:C 5.52302e-05
56 *1866:CLK *1753:C 4.62179e-05
57 *1866:D *1751:C 1.51571e-05
58 *1867:D *1753:C 0.000137561
59 *1870:CLK *1757:C 8.29398e-06
60 *1872:CLK *1759:C 8.29398e-06
61 *1872:D *1757:C 1.8461e-05
62 *1873:D *1758:C 0.0001826
63 *1873:D *1759:C 2.27766e-05
64 *1874:D *1759:C 1.8461e-05
65 *1875:D *1760:C 0
66 *359:8 *1754:C 5.49489e-05
67 *360:12 *1755:C 2.8078e-05
68 *384:34 *1761:C 9.8435e-05
69 *384:34 *395:32 0.000208606
70 *384:34 *395:58 5.97681e-05
71 *384:34 *395:69 9.23888e-05
72 *384:34 *395:80 0.000138826
73 *384:34 *395:93 7.48356e-05
74 *384:34 *395:104 8.33463e-05
75 *384:34 *395:115 7.34455e-06
76 *384:34 *395:128 0.000195979
77 *385:25 *1761:C 5.48248e-05
78 *385:25 *395:104 1.12323e-05
79 *385:25 *395:115 7.6644e-05
80 *385:25 *395:128 0.000532184
81 *385:27 *395:104 3.36969e-05
82 *385:29 *395:104 0.000117189
83 *385:31 *395:80 9.30022e-05
84 *385:31 *395:93 0.000148903
85 *385:31 *395:104 9.25014e-06
86 *385:37 *395:69 9.25014e-06
87 *385:37 *395:80 0.000175519
88 *385:52 *395:69 4.43698e-05
89 *385:58 *395:58 5.41554e-05
90 *385:58 *395:69 8.11028e-06
91 *385:77 *1752:C 5.33005e-05
92 *385:77 *1753:C 3.36017e-05
*RES
1 *1981:X *395:6 11.0679 
2 *395:6 *1750:C 10.5679 
3 *395:6 *395:19 5.83929 
4 *395:19 *1751:C 16.8179 
5 *395:19 *395:32 3.16071 
6 *395:32 *395:34 4.5 
7 *395:34 *1752:C 9.83571 
8 *395:34 *1753:C 22.7464 
9 *395:32 *395:58 2.25 
10 *395:58 *1755:C 15.5679 
11 *395:58 *395:69 2.55357 
12 *395:69 *1754:C 14.3357 
13 *395:69 *395:80 3.46429 
14 *395:80 *1757:C 16.3 
15 *395:80 *395:93 1.94643 
16 *395:93 *1756:C 14.3357 
17 *395:93 *395:104 2.25 
18 *395:104 *1758:C 16.3893 
19 *395:104 *395:115 1.03571 
20 *395:115 *1759:C 16.3 
21 *395:115 *395:128 6.80357 
22 *395:128 *1760:C 14.7643 
23 *395:128 *1761:C 18.1214 
*END

*D_NET *396 0.0210416
*CONN
*I *1773:C I *D sky130_fd_sc_hd__nor4b_1
*I *1772:C I *D sky130_fd_sc_hd__nor4b_1
*I *1788:C I *D sky130_fd_sc_hd__nor4b_1
*I *1791:C I *D sky130_fd_sc_hd__nor4b_1
*I *1790:C I *D sky130_fd_sc_hd__nor4b_1
*I *1789:C I *D sky130_fd_sc_hd__nor4b_1
*I *1774:C I *D sky130_fd_sc_hd__nor4b_1
*I *1777:C I *D sky130_fd_sc_hd__nor4b_1
*I *1775:C I *D sky130_fd_sc_hd__nor4b_1
*I *1770:C I *D sky130_fd_sc_hd__nor4b_1
*I *1771:C I *D sky130_fd_sc_hd__nor4b_1
*I *1769:C I *D sky130_fd_sc_hd__nor4b_1
*I *1768:C I *D sky130_fd_sc_hd__nor4b_1
*I *1767:C I *D sky130_fd_sc_hd__nor4b_1
*I *1766:C I *D sky130_fd_sc_hd__nor4b_1
*I *1765:C I *D sky130_fd_sc_hd__nor4b_1
*I *1982:X O *D sky130_fd_sc_hd__buf_4
*CAP
1 *1773:C 8.17571e-05
2 *1772:C 9.57707e-05
3 *1788:C 0.000192005
4 *1791:C 8.06639e-05
5 *1790:C 0.000148572
6 *1789:C 0
7 *1774:C 0
8 *1777:C 0.000135363
9 *1775:C 1.41579e-05
10 *1770:C 0.000122619
11 *1771:C 0.00025508
12 *1769:C 0.000140586
13 *1768:C 5.45837e-05
14 *1767:C 0.000145703
15 *1766:C 0.000166091
16 *1765:C 0.000314578
17 *1982:X 0
18 *396:215 0.000320927
19 *396:206 0.000198724
20 *396:202 0.000934467
21 *396:194 0.00227279
22 *396:177 0.00180771
23 *396:158 0.000408426
24 *396:141 0.000242586
25 *396:133 0.000574904
26 *396:123 0.000837889
27 *396:85 0.000377699
28 *396:83 0.000519151
29 *396:68 0.000359422
30 *396:55 0.000247002
31 *396:40 0.000308893
32 *396:25 0.000292995
33 *396:4 0.000368308
34 *1765:C *400:126 1.94879e-05
35 *1766:C *1766:A 2.61337e-05
36 *1766:C *412:67 7.15591e-05
37 *1768:C *1768:A 3.41779e-05
38 *1773:C *1773:A 4.58194e-05
39 *396:25 *438:DIODE 9.41642e-05
40 *396:40 *412:67 0.000103285
41 *396:55 *412:65 9.9784e-05
42 *396:55 *412:67 5.80706e-06
43 *396:68 *412:61 3.48235e-05
44 *396:68 *412:63 8.66324e-05
45 *396:68 *412:65 5.80706e-06
46 *396:83 *412:61 0.000153153
47 *396:123 *412:59 8.92157e-05
48 *396:123 *412:61 2.77209e-05
49 *396:133 *1773:A 6.05161e-06
50 *396:133 *416:126 0.000136064
51 *396:141 *1774:A 4.49293e-05
52 *396:141 *412:53 1.98839e-05
53 *396:141 *412:55 0.000148911
54 *396:158 *412:53 8.43535e-06
55 *396:194 *1784:C 0.000220935
56 *396:202 *400:162 0.000362234
57 *1766:B *1766:C 0.000142157
58 *1766:D_N *1765:C 2.06112e-05
59 *1767:B *1767:C 4.2805e-05
60 *1767:D_N *1767:C 2.89114e-05
61 *1769:B *1769:C 0.000139637
62 *1770:B *1770:C 2.85957e-05
63 *1770:D_N *1770:C 2.89114e-05
64 *1770:D_N *1771:C 0.000254443
65 *1771:B *1771:C 5.63882e-05
66 *1772:B *1772:C 8.44071e-05
67 *1772:B *396:133 0.000136958
68 *1772:D_N *396:123 4.33002e-05
69 *1773:D_N *396:133 5.49544e-05
70 *1774:B *396:177 3.05201e-05
71 *1774:D_N *1777:C 5.33005e-05
72 *1774:D_N *396:133 3.35905e-05
73 *1774:D_N *396:158 0.000100464
74 *1774:D_N *396:177 0.000136958
75 *1784:D_N *396:194 0.000100142
76 *1788:B *1788:C 0.000215088
77 *1788:B *396:202 9.71197e-05
78 *1788:D_N *396:202 0.000114553
79 *1790:B *1790:C 0.000180072
80 *1791:B *1791:C 4.61169e-05
81 *1791:B *396:215 1.6271e-05
82 *1880:D *1766:C 1.13883e-05
83 *1884:CLK *1769:C 1.17091e-05
84 *1887:D *1770:C 1.13883e-05
85 *1890:CLK *1772:C 1.17091e-05
86 *1890:D *396:194 9.07317e-05
87 *1892:CLK *396:194 2.84026e-05
88 *1892:D *396:194 0.000292701
89 *1893:CLK *396:194 2.59093e-05
90 *1893:D *1777:C 2.6269e-05
91 *1894:D *396:194 0.00029513
92 *1900:CLK *396:194 9.58126e-05
93 *1900:D *396:194 3.15374e-05
94 *1952:A *396:141 3.17148e-05
95 *1953:A *396:141 0.000173804
96 *237:10 *1766:C 0.000187115
97 *237:14 *1765:C 0.000145618
98 *237:14 *1766:C 0.000237191
99 *237:14 *396:40 0.000188741
100 *237:14 *396:55 0.000191877
101 *237:14 *396:68 0.000236814
102 *237:14 *396:83 0.00028245
103 *237:14 *396:123 0.000272993
104 *237:14 *396:158 0.00010047
105 *237:16 *1791:C 0.000153054
106 *237:16 *396:206 0.000247771
107 *237:16 *396:215 0.000245342
108 *361:18 *396:123 6.57032e-05
109 *362:8 *396:141 5.33005e-05
110 *366:10 *396:194 4.86923e-05
111 *366:23 *396:194 0.000252722
112 *366:36 *396:194 7.83462e-05
113 *366:45 *396:194 0.000134748
114 *366:58 *396:194 1.52978e-05
115 *386:43 *1765:C 1.58365e-05
116 *386:88 *1771:C 1.39782e-05
117 *386:107 *396:123 0.000287651
118 *386:107 *396:133 5.79582e-06
119 *386:116 *396:133 5.25557e-05
120 *386:144 *1775:C 3.57366e-05
121 *386:144 *396:158 1.32056e-05
122 *386:148 *1777:C 5.85208e-05
123 *386:170 *396:202 0
124 *386:170 *396:206 1.41642e-05
125 *386:183 *396:206 8.54803e-05
126 *386:198 *396:206 2.84019e-05
127 *386:198 *396:215 0.000103118
*RES
1 *1982:X *396:4 9.3 
2 *396:4 *1765:C 22.8714 
3 *396:4 *396:25 5.44643 
4 *396:25 *1766:C 19.1571 
5 *396:25 *396:40 2.55357 
6 *396:40 *1767:C 16.425 
7 *396:40 *396:55 2.55357 
8 *396:55 *1768:C 14.7643 
9 *396:55 *396:68 3.16071 
10 *396:68 *1769:C 16.425 
11 *396:68 *396:83 3.76786 
12 *396:83 *396:85 4.5 
13 *396:85 *1771:C 22.1884 
14 *396:85 *1770:C 11.4964 
15 *396:83 *396:123 22.3929 
16 *396:123 *396:133 16 
17 *396:133 *396:141 12.5 
18 *396:141 *1775:C 9.72857 
19 *396:141 *396:158 11.3036 
20 *396:158 *1777:C 12.175 
21 *396:158 *396:177 3.01786 
22 *396:177 *1774:C 9.3 
23 *396:177 *396:194 44.8929 
24 *396:194 *396:202 16.5536 
25 *396:202 *396:206 7.66071 
26 *396:206 *1789:C 13.8 
27 *396:206 *396:215 3.16071 
28 *396:215 *1790:C 16.4071 
29 *396:215 *1791:C 15.7464 
30 *396:202 *1788:C 12.2107 
31 *396:133 *1772:C 11.0857 
32 *396:123 *1773:C 10.675 
*END

*D_NET *397 0.0078329
*CONN
*I *1776:C I *D sky130_fd_sc_hd__nor4b_1
*I *1787:C I *D sky130_fd_sc_hd__nor4b_1
*I *1786:C I *D sky130_fd_sc_hd__nor4b_1
*I *1785:C I *D sky130_fd_sc_hd__nor4b_1
*I *1784:C I *D sky130_fd_sc_hd__nor4b_1
*I *1783:C I *D sky130_fd_sc_hd__nor4b_1
*I *1782:C I *D sky130_fd_sc_hd__nor4b_1
*I *1781:C I *D sky130_fd_sc_hd__nor4b_1
*I *1778:C I *D sky130_fd_sc_hd__nor4b_1
*I *1779:C I *D sky130_fd_sc_hd__nor4b_1
*I *1780:C I *D sky130_fd_sc_hd__nor4b_1
*I *1983:X O *D sky130_fd_sc_hd__buf_2
*CAP
1 *1776:C 0.000153166
2 *1787:C 4.06588e-05
3 *1786:C 0.000132614
4 *1785:C 0
5 *1784:C 0.000112887
6 *1783:C 0
7 *1782:C 0.000201788
8 *1781:C 0
9 *1778:C 0.000188962
10 *1779:C 2.38955e-05
11 *1780:C 0.000218518
12 *1983:X 0
13 *397:100 0.000244091
14 *397:91 0.000138295
15 *397:76 0.000254753
16 *397:67 0.000125893
17 *397:52 0.000345818
18 *397:43 0.000126653
19 *397:30 0.000325441
20 *397:6 0.000522526
21 *397:4 0.000330925
22 *1776:C *1983:A 0.000169707
23 *1776:C *413:41 1.62621e-05
24 *1779:C *413:41 1.3701e-05
25 *1780:C *1779:A 1.56e-05
26 *1780:C *413:41 5.30637e-06
27 *397:6 *1983:A 1.58163e-05
28 *397:6 *413:41 4.60309e-05
29 *1778:B *1778:C 0.000215518
30 *1778:D_N *397:30 5.72546e-05
31 *1782:B *1782:C 6.51142e-05
32 *1784:B *1784:C 2.67489e-05
33 *1784:D_N *1784:C 4.58194e-05
34 *1786:B *1786:C 4.22431e-05
35 *1786:D_N *1786:C 9.41642e-05
36 *1787:B *1787:C 0.000169405
37 *1787:B *397:100 8.00806e-05
38 *1895:D *397:6 6.8377e-06
39 *1896:CLK *1778:C 1.17091e-05
40 *1896:D *1778:C 1.13883e-05
41 *1900:CLK *1784:C 1.17091e-05
42 *237:16 *1776:C 0
43 *237:16 *1787:C 0.000177948
44 *237:16 *397:30 0.000191403
45 *237:16 *397:43 0.000128154
46 *237:16 *397:52 0.000221307
47 *237:16 *397:67 0.000174797
48 *237:16 *397:76 0.000220966
49 *237:16 *397:91 0.000172013
50 *237:16 *397:100 0.000217413
51 *367:62 *1776:C 0
52 *386:170 *1780:C 5.93614e-05
53 *386:170 *397:30 2.29768e-05
54 *387:10 *1779:C 3.57366e-05
55 *387:10 *1780:C 0.000181996
56 *387:38 *1780:C 0.000124869
57 *387:53 *1778:C 0
58 *387:53 *397:30 1.02504e-05
59 *387:53 *397:43 0.000119618
60 *387:62 *397:43 1.02504e-05
61 *387:62 *397:52 0.000213478
62 *387:77 *397:52 1.02504e-05
63 *387:77 *397:67 0.000164547
64 *387:86 *397:67 1.02504e-05
65 *387:86 *397:76 0.000165269
66 *387:99 *397:76 5.46971e-05
67 *387:99 *397:91 0.000164774
68 *387:108 *397:91 1.02504e-05
69 *387:108 *397:100 0.00014209
70 *396:194 *1784:C 0.000220935
*RES
1 *1983:X *397:4 9.3 
2 *397:4 *397:6 2.17857 
3 *397:6 *1780:C 22.1214 
4 *397:6 *1779:C 10.0321 
5 *397:6 *397:30 7.05357 
6 *397:30 *1778:C 16.7107 
7 *397:30 *397:43 1.64286 
8 *397:43 *1781:C 13.8 
9 *397:43 *397:52 2.85714 
10 *397:52 *1782:C 17.1393 
11 *397:52 *397:67 2.25 
12 *397:67 *1783:C 13.8 
13 *397:67 *397:76 2.85714 
14 *397:76 *1784:C 16.8357 
15 *397:76 *397:91 2.25 
16 *397:91 *1785:C 13.8 
17 *397:91 *397:100 2.85714 
18 *397:100 *1786:C 15.9786 
19 *397:100 *1787:C 16.05 
20 *397:4 *1776:C 21.4607 
*END

*D_NET *398 0.0194526
*CONN
*I *1792:C I *D sky130_fd_sc_hd__nor4b_1
*I *1793:C I *D sky130_fd_sc_hd__nor4b_1
*I *1794:C I *D sky130_fd_sc_hd__nor4b_1
*I *1802:C I *D sky130_fd_sc_hd__nor4b_1
*I *1804:C I *D sky130_fd_sc_hd__nor4b_1
*I *1818:C I *D sky130_fd_sc_hd__nor4b_1
*I *1820:C I *D sky130_fd_sc_hd__nor4b_1
*I *1819:C I *D sky130_fd_sc_hd__nor4b_1
*I *1803:C I *D sky130_fd_sc_hd__nor4b_1
*I *1801:C I *D sky130_fd_sc_hd__nor4b_1
*I *1800:C I *D sky130_fd_sc_hd__nor4b_1
*I *1797:C I *D sky130_fd_sc_hd__nor4b_1
*I *1799:C I *D sky130_fd_sc_hd__nor4b_1
*I *1798:C I *D sky130_fd_sc_hd__nor4b_1
*I *1796:C I *D sky130_fd_sc_hd__nor4b_1
*I *1795:C I *D sky130_fd_sc_hd__nor4b_1
*I *1984:X O *D sky130_fd_sc_hd__buf_4
*CAP
1 *1792:C 9.71745e-05
2 *1793:C 0
3 *1794:C 0.000155149
4 *1802:C 0
5 *1804:C 0
6 *1818:C 0
7 *1820:C 0.000243978
8 *1819:C 0.000469225
9 *1803:C 0.000132048
10 *1801:C 0.00016828
11 *1800:C 0
12 *1797:C 0.000312584
13 *1799:C 0
14 *1798:C 3.6542e-05
15 *1796:C 0.000203045
16 *1795:C 8.15958e-05
17 *1984:X 4.56405e-05
18 *398:191 0.000830681
19 *398:168 0.00238886
20 *398:154 0.00140553
21 *398:141 0.000293107
22 *398:137 0.000236326
23 *398:118 0.000657829
24 *398:101 0.000577782
25 *398:73 0.000312584
26 *398:71 0.000369278
27 *398:56 0.000292387
28 *398:41 0.000484493
29 *398:24 0.000422047
30 *398:16 0.000411501
31 *398:10 0.000236148
32 *398:6 0.000304283
33 *1792:C *1792:A 2.21639e-05
34 *1792:C *1984:A 9.97164e-05
35 *1795:C *1795:A 4.87953e-05
36 *1798:C *414:17 0.000182592
37 *1803:C *1803:A 1.98839e-05
38 *1819:C *1819:A 8.48038e-05
39 *398:10 *1793:A 2.95726e-05
40 *398:41 *400:196 7.12029e-06
41 *398:56 *400:196 0.000347863
42 *398:71 *400:196 0.000117379
43 *398:101 *1800:A 1.98839e-05
44 *398:101 *400:196 7.13161e-05
45 *398:168 *1804:A 1.39841e-05
46 *398:168 *414:144 0.000959038
47 *398:168 *416:39 0.000252542
48 *398:191 *414:144 5.83304e-05
49 *398:191 *414:165 0.000546174
50 *432:DIODE *398:168 0.000175519
51 *1792:B *398:16 1.02504e-05
52 *1794:B *1794:C 2.85957e-05
53 *1794:D_N *1794:C 4.27437e-05
54 *1794:D_N *398:24 4.82865e-05
55 *1796:B *1796:C 2.85957e-05
56 *1796:D_N *1796:C 6.86792e-05
57 *1798:B *1798:C 0.000182592
58 *1799:B *1797:C 3.97677e-05
59 *1800:B *398:101 2.48363e-05
60 *1800:B *398:118 4.70688e-05
61 *1800:D_N *398:101 9.41642e-05
62 *1801:B *1801:C 7.34153e-05
63 *1802:B *398:137 0.000135028
64 *1803:D_N *1803:C 9.41642e-05
65 *1804:B *398:168 5.52238e-05
66 *1804:D_N *398:168 0.000141734
67 *1818:D_N *398:191 0.00031434
68 *1819:B *1819:C 0.000130725
69 *1820:B *1820:C 0.000372799
70 *1909:D *398:6 5.20751e-05
71 *1909:D *398:10 6.86693e-05
72 *1915:D *1797:C 0.000137561
73 *1919:D *398:137 2.59355e-05
74 *1935:CLK *1820:C 0
75 *237:16 *1820:C 0.00015304
76 *237:16 *398:16 0.000220455
77 *237:16 *398:56 1.08359e-05
78 *237:16 *398:71 0.000200583
79 *237:16 *398:101 0.000150625
80 *237:16 *398:141 0.00019384
81 *237:16 *398:154 0.000196269
82 *363:16 *398:141 9.54453e-05
83 *363:16 *398:154 9.31534e-05
84 *388:8 *398:10 6.10501e-05
85 *388:27 *398:16 0.000150625
86 *388:40 *398:16 7.90803e-05
87 *388:40 *398:24 0.000147582
88 *388:40 *398:41 3.27526e-05
89 *388:53 *398:41 0.000152796
90 *388:68 *398:41 4.63214e-05
91 *388:68 *398:56 0.000341518
92 *388:89 *1797:C 0.000113187
93 *388:102 *1797:C 2.41972e-05
94 *388:102 *398:118 2.88036e-05
95 *388:119 *398:118 0.000321865
96 *388:134 *398:118 3.34366e-05
97 *388:134 *398:137 0.000140375
98 *388:193 *398:168 1.24368e-05
99 *388:218 *1820:C 1.02504e-05
*RES
1 *1984:X *398:6 10.2464 
2 *398:6 *398:10 2.91071 
3 *398:10 *398:16 11.8571 
4 *398:16 *398:24 7.82143 
5 *398:24 *1795:C 15.175 
6 *398:24 *398:41 3.82143 
7 *398:41 *1796:C 17.2464 
8 *398:41 *398:56 4.67857 
9 *398:56 *1798:C 15.5679 
10 *398:56 *398:71 3.51786 
11 *398:71 *398:73 4.5 
12 *398:73 *1799:C 9.3 
13 *398:73 *1797:C 23.7643 
14 *398:71 *398:101 9.35714 
15 *398:101 *1800:C 9.3 
16 *398:101 *398:118 11.4107 
17 *398:118 *1801:C 16.7286 
18 *398:118 *398:137 7.80357 
19 *398:137 *398:141 7.05357 
20 *398:141 *1803:C 15.9786 
21 *398:141 *398:154 7.05357 
22 *398:154 *398:168 35.1607 
23 *398:168 *1819:C 20.1214 
24 *398:168 *398:191 17 
25 *398:191 *1820:C 23.1571 
26 *398:191 *1818:C 9.3 
27 *398:154 *1804:C 9.3 
28 *398:137 *1802:C 9.3 
29 *398:16 *1794:C 11.9071 
30 *398:10 *1793:C 9.3 
31 *398:6 *1792:C 20.2464 
*END

*D_NET *399 0.0105597
*CONN
*I *1805:C I *D sky130_fd_sc_hd__nor4b_1
*I *1809:C I *D sky130_fd_sc_hd__nor4b_1
*I *1812:C I *D sky130_fd_sc_hd__nor4b_1
*I *1811:C I *D sky130_fd_sc_hd__nor4b_1
*I *1816:C I *D sky130_fd_sc_hd__nor4b_1
*I *1817:C I *D sky130_fd_sc_hd__nor4b_1
*I *1815:C I *D sky130_fd_sc_hd__nor4b_1
*I *1814:C I *D sky130_fd_sc_hd__nor4b_1
*I *1813:C I *D sky130_fd_sc_hd__nor4b_1
*I *1810:C I *D sky130_fd_sc_hd__nor4b_1
*I *1808:C I *D sky130_fd_sc_hd__nor4b_1
*I *1807:C I *D sky130_fd_sc_hd__nor4b_1
*I *1806:C I *D sky130_fd_sc_hd__nor4b_1
*I *1985:X O *D sky130_fd_sc_hd__clkbuf_4
*CAP
1 *1805:C 0.000161476
2 *1809:C 0
3 *1812:C 0
4 *1811:C 6.74995e-05
5 *1816:C 0.000126772
6 *1817:C 2.86018e-05
7 *1815:C 0
8 *1814:C 5.00829e-05
9 *1813:C 5.37703e-05
10 *1810:C 0
11 *1808:C 9.02232e-05
12 *1807:C 0.000106078
13 *1806:C 0.000129113
14 *1985:X 0
15 *399:141 0.000350446
16 *399:126 0.000583593
17 *399:107 0.000547393
18 *399:103 0.000284556
19 *399:92 0.000442742
20 *399:82 0.000549495
21 *399:74 0.000700118
22 *399:55 0.000817147
23 *399:36 0.000657741
24 *399:23 0.000342365
25 *399:6 0.000257639
26 *399:4 0.000235413
27 *1805:C *414:144 7.81927e-05
28 *1806:C *1985:A 6.17358e-05
29 *1807:C *456:DIODE 1.03906e-05
30 *1816:C *1816:A 0.00013234
31 *1817:C *1816:A 4.08637e-05
32 *1817:C *1817:A 5.49489e-05
33 *399:23 *414:144 7.83587e-05
34 *399:36 *456:DIODE 3.006e-05
35 *399:74 *414:144 0
36 *399:74 *415:61 0.000123946
37 *399:82 *1809:A 7.951e-05
38 *399:92 *414:144 8.58222e-05
39 *399:92 *415:61 2.6304e-05
40 *399:92 *415:70 5.70695e-05
41 *399:92 *415:107 2.97869e-05
42 *399:141 *1815:A 5.49489e-05
43 *399:141 *415:134 0.000147718
44 *1806:B *1806:C 1.97695e-05
45 *1807:B *1807:C 8.9971e-05
46 *1809:B *399:74 7.06284e-05
47 *1809:D_N *399:55 0.000179811
48 *1809:D_N *399:82 4.1331e-06
49 *1810:D_N *399:74 7.20217e-06
50 *1811:B *1811:C 2.67489e-05
51 *1811:B *399:103 3.63775e-05
52 *1812:D_N *399:92 5.49544e-05
53 *1813:B *1813:C 2.84026e-05
54 *1813:B *399:103 6.34436e-05
55 *1815:B *399:126 1.24368e-05
56 *1815:B *399:141 2.21991e-05
57 *1816:B *1816:C 0.000251542
58 *1816:D_N *399:126 7.69776e-06
59 *1817:B *1816:C 0.000146737
60 *1817:B *1817:C 4.22349e-05
61 *1821:A *1814:C 9.41642e-05
62 *1923:D *1806:C 2.84109e-05
63 *1923:D *399:6 2.93922e-05
64 *1925:D *1808:C 2.89016e-05
65 *1926:D *399:55 0.000147582
66 *1926:D *399:74 9.79957e-05
67 *1927:D *399:55 4.58194e-05
68 *1928:CLK *399:74 1.17091e-05
69 *1929:D *399:82 0.000137561
70 *1930:D *1811:C 0.000141734
71 *1930:D *399:92 3.27461e-05
72 *1930:D *399:103 0.000216755
73 *1931:D *1814:C 3.69047e-06
74 *1932:D *399:126 9.86146e-05
75 *1934:D *1816:C 1.64621e-05
76 *137:17 *399:141 0.000143967
77 *237:16 *399:36 0.000130593
78 *237:16 *399:55 7.44945e-07
79 *237:16 *399:82 0
80 *237:16 *399:107 0.000173797
81 *237:16 *399:126 0.00024056
82 *370:12 *399:55 0
83 *370:14 *399:36 0
84 *370:16 *1805:C 0
85 *370:64 *399:107 0
86 *370:75 *399:126 0
87 *389:87 *1811:C 0
*RES
1 *1985:X *399:4 9.3 
2 *399:4 *399:6 0.946429 
3 *399:6 *1806:C 11.9429 
4 *399:6 *399:23 5.53571 
5 *399:23 *1807:C 15.4786 
6 *399:23 *399:36 3.46429 
7 *399:36 *1808:C 15.1571 
8 *399:36 *399:55 11.9107 
9 *399:55 *1810:C 9.3 
10 *399:55 *399:74 16.2679 
11 *399:74 *399:82 13.7321 
12 *399:82 *399:92 14.6607 
13 *399:92 *1813:C 10.2643 
14 *399:92 *399:103 2.58929 
15 *399:103 *399:107 6.75 
16 *399:107 *1814:C 14.7464 
17 *399:107 *399:126 12.0179 
18 *399:126 *1815:C 9.3 
19 *399:126 *399:141 13.0357 
20 *399:141 *1817:C 10.2464 
21 *399:141 *1816:C 13.6929 
22 *399:103 *1811:C 11.0857 
23 *399:82 *1812:C 9.3 
24 *399:74 *1809:C 9.3 
25 *399:4 *1805:C 21.4607 
*END

*D_NET *400 0.0436007
*CONN
*I *1983:A I *D sky130_fd_sc_hd__buf_2
*I *439:DIODE I *D sky130_fd_sc_hd__diode_2
*I *1985:A I *D sky130_fd_sc_hd__clkbuf_4
*I *441:DIODE I *D sky130_fd_sc_hd__diode_2
*I *1984:A I *D sky130_fd_sc_hd__buf_4
*I *440:DIODE I *D sky130_fd_sc_hd__diode_2
*I *438:DIODE I *D sky130_fd_sc_hd__diode_2
*I *1982:A I *D sky130_fd_sc_hd__buf_4
*I *437:DIODE I *D sky130_fd_sc_hd__diode_2
*I *1981:A I *D sky130_fd_sc_hd__clkbuf_4
*I *433:DIODE I *D sky130_fd_sc_hd__diode_2
*I *436:DIODE I *D sky130_fd_sc_hd__diode_2
*I *1977:A I *D sky130_fd_sc_hd__buf_4
*I *1980:A I *D sky130_fd_sc_hd__buf_4
*I *1979:A I *D sky130_fd_sc_hd__clkbuf_4
*I *435:DIODE I *D sky130_fd_sc_hd__diode_2
*I *1986:X O *D sky130_fd_sc_hd__clkbuf_4
*CAP
1 *1983:A 0.000321774
2 *439:DIODE 0
3 *1985:A 0.00061987
4 *441:DIODE 0
5 *1984:A 0.00021196
6 *440:DIODE 0
7 *438:DIODE 0.000213528
8 *1982:A 6.57302e-05
9 *437:DIODE 0.000334534
10 *1981:A 0.000104513
11 *433:DIODE 0.000166875
12 *436:DIODE 0
13 *1977:A 0
14 *1980:A 9.04722e-06
15 *1979:A 0
16 *435:DIODE 0.000136882
17 *1986:X 0
18 *400:200 0.00127064
19 *400:196 0.00216824
20 *400:166 0.000440037
21 *400:162 0.00341676
22 *400:152 0.00517703
23 *400:126 0.000392061
24 *400:116 0.0062629
25 *400:99 0.00351448
26 *400:82 0.00131977
27 *400:69 0.00127902
28 *400:48 2.44813e-05
29 *400:26 0.000384537
30 *400:24 0.000429124
31 *400:20 0.0004345
32 *400:4 0.000379244
33 *433:DIODE *1737:A 0.000105546
34 *437:DIODE *1750:A 2.34969e-05
35 *437:DIODE *403:33 0
36 *437:DIODE *411:61 8.49884e-06
37 *1983:A *1776:A 4.25652e-05
38 *1984:A *1792:A 0.000123359
39 *400:26 *416:163 0
40 *400:82 *1737:A 7.80051e-05
41 *400:82 *403:50 5.53592e-05
42 *400:82 *403:52 6.72902e-05
43 *400:82 *403:54 1.30798e-05
44 *400:82 *403:70 0.000185304
45 *400:82 *403:72 0.00016188
46 *400:82 *416:163 0.000158408
47 *400:116 *416:163 0.00192498
48 *400:162 *1776:A 3.69047e-06
49 *400:162 *412:39 0.000841476
50 *400:162 *416:112 0.000213134
51 *400:196 *455:DIODE 7.70035e-05
52 *400:196 *414:87 8.24778e-05
53 *400:196 *414:93 9.11048e-06
54 *400:196 *416:10 0.000123187
55 *400:196 *416:39 0
56 *432:DIODE *1985:A 8.27532e-05
57 *1734:D_N *435:DIODE 3.67142e-05
58 *1737:B *400:20 3.92955e-05
59 *1737:B *400:24 0
60 *1737:B *400:82 1.09232e-05
61 *1737:D_N *1980:A 3.18676e-05
62 *1737:D_N *400:48 2.14658e-05
63 *1738:B *400:20 3.41517e-06
64 *1738:B *400:82 1.21859e-05
65 *1738:D_N *400:20 0.000145239
66 *1738:D_N *400:69 2.42516e-05
67 *1739:D_N *400:82 1.94945e-05
68 *1741:D_N *400:82 8.14667e-05
69 *1748:D_N *400:82 0.000537475
70 *1749:D_N *400:82 2.2355e-05
71 *1750:B *400:82 4.1331e-06
72 *1750:B *400:99 1.5942e-05
73 *1750:C *1981:A 1.04232e-05
74 *1765:C *400:126 1.94879e-05
75 *1776:B *1983:A 9.35114e-06
76 *1776:B *400:162 1.03037e-05
77 *1776:C *1983:A 0.000169707
78 *1776:D_N *1983:A 3.17163e-05
79 *1792:B *1984:A 0.000211884
80 *1792:B *400:166 1.24368e-05
81 *1792:C *1984:A 9.97164e-05
82 *1800:D_N *400:196 0.000123073
83 *1806:C *1985:A 6.17358e-05
84 *1806:D_N *1985:A 0.000110138
85 *1851:D *433:DIODE 3.41649e-05
86 *1865:D *1981:A 0.000269378
87 *1895:D *1983:A 0.000139208
88 *1923:D *1985:A 0.000269385
89 *1986:A *400:20 0.000141734
90 *1986:A *400:24 4.46186e-06
91 *237:14 *400:152 0.000129366
92 *237:16 *1983:A 6.53874e-05
93 *237:16 *400:152 1.90936e-05
94 *237:16 *400:162 0
95 *237:16 *400:196 2.14549e-05
96 *384:34 *400:82 0.000548302
97 *384:34 *400:99 0.000159763
98 *384:36 *400:82 9.15804e-05
99 *384:38 *400:82 0.000117896
100 *384:40 *400:82 0.000164554
101 *384:42 *400:82 0.000211205
102 *384:44 *400:82 0.000140375
103 *384:46 *400:82 0.000236806
104 *384:48 *400:82 0.00013966
105 *384:50 *400:82 0.000234384
106 *384:56 *400:82 0.000149911
107 *384:66 *400:82 0.000200245
108 *384:68 *400:82 4.63368e-05
109 *386:170 *400:162 0.000199421
110 *386:183 *400:162 0
111 *389:6 *1985:A 6.39452e-06
112 *390:149 *400:162 5.08481e-05
113 *390:169 *400:162 0.000946195
114 *390:169 *400:196 0
115 *390:180 *400:196 0
116 *390:195 *1985:A 9.60939e-05
117 *390:195 *400:196 0
118 *390:195 *400:200 0.00120092
119 *391:8 *400:26 6.07232e-05
120 *391:10 *435:DIODE 5.33882e-05
121 *391:10 *400:26 0.000141366
122 *394:10 *1980:A 3.18676e-05
123 *394:10 *400:48 2.89016e-05
124 *394:29 *433:DIODE 7.83587e-05
125 *394:29 *400:69 5.33005e-05
126 *394:29 *400:82 2.24646e-05
127 *394:57 *400:82 1.87097e-05
128 *394:68 *400:82 0.000146316
129 *394:81 *400:82 0.000243627
130 *394:94 *400:82 0.000173384
131 *395:6 *1981:A 4.63768e-05
132 *395:19 *400:99 9.80405e-05
133 *395:32 *400:99 1.90936e-05
134 *396:25 *438:DIODE 9.41642e-05
135 *396:202 *400:162 0.000362234
136 *397:6 *1983:A 1.58163e-05
137 *398:41 *400:196 7.12029e-06
138 *398:56 *400:196 0.000347863
139 *398:71 *400:196 0.000117379
140 *398:101 *400:196 7.13161e-05
*RES
1 *1986:X *400:4 9.3 
2 *400:4 *400:20 14.5536 
3 *400:20 *400:24 7.35714 
4 *400:24 *400:26 5.28571 
5 *400:26 *435:DIODE 16.0857 
6 *400:26 *1979:A 13.8 
7 *400:24 *400:48 5.03571 
8 *400:48 *1980:A 9.83571 
9 *400:48 *1977:A 9.3 
10 *400:20 *436:DIODE 9.3 
11 *400:4 *400:69 5.85714 
12 *400:69 *433:DIODE 16.6036 
13 *400:69 *400:82 32.6071 
14 *400:82 *1981:A 16.8179 
15 *400:82 *400:99 5.73538 
16 *400:99 *437:DIODE 19.0724 
17 *400:99 *400:116 9.849 
18 *400:116 *400:126 11.7519 
19 *400:126 *1982:A 10.2464 
20 *400:126 *438:DIODE 12.7107 
21 *400:116 *400:152 17.16 
22 *400:152 *400:162 45.0357 
23 *400:162 *400:166 7.08929 
24 *400:166 *440:DIODE 9.3 
25 *400:166 *1984:A 22.1214 
26 *400:162 *400:196 35.0893 
27 *400:196 *400:200 20.1071 
28 *400:200 *441:DIODE 9.3 
29 *400:200 *1985:A 18.1929 
30 *400:152 *439:DIODE 9.3 
31 *400:152 *1983:A 24.5857 
*END

*D_NET *401 0.0105458
*CONN
*I *1850:RESET_B I *D sky130_fd_sc_hd__dfrtp_4
*I *1836:RESET_B I *D sky130_fd_sc_hd__dfrtp_4
*I *1835:RESET_B I *D sky130_fd_sc_hd__dfrtp_4
*I *1834:RESET_B I *D sky130_fd_sc_hd__dfrtp_4
*I *1833:RESET_B I *D sky130_fd_sc_hd__dfrtp_4
*I *1832:RESET_B I *D sky130_fd_sc_hd__dfrtp_4
*I *1831:RESET_B I *D sky130_fd_sc_hd__dfrtp_4
*I *1830:RESET_B I *D sky130_fd_sc_hd__dfrtp_4
*I *1829:RESET_B I *D sky130_fd_sc_hd__dfrtp_4
*I *1828:RESET_B I *D sky130_fd_sc_hd__dfrtp_4
*I *1827:RESET_B I *D sky130_fd_sc_hd__dfrtp_4
*I *1826:RESET_B I *D sky130_fd_sc_hd__dfrtp_4
*I *1825:RESET_B I *D sky130_fd_sc_hd__dfrtp_4
*I *1824:RESET_B I *D sky130_fd_sc_hd__dfrtp_4
*I *1822:RESET_B I *D sky130_fd_sc_hd__dfrtp_4
*I *1823:RESET_B I *D sky130_fd_sc_hd__dfrtp_4
*I *1987:X O *D sky130_fd_sc_hd__clkbuf_8
*CAP
1 *1850:RESET_B 0.00175839
2 *1836:RESET_B 5.64093e-05
3 *1835:RESET_B 0
4 *1834:RESET_B 0
5 *1833:RESET_B 0
6 *1832:RESET_B 0
7 *1831:RESET_B 3.35824e-05
8 *1830:RESET_B 5.64093e-05
9 *1829:RESET_B 0.000155769
10 *1828:RESET_B 0
11 *1827:RESET_B 0
12 *1826:RESET_B 0.000381382
13 *1825:RESET_B 0.000120723
14 *1824:RESET_B 5.64093e-05
15 *1822:RESET_B 0.000148141
16 *1823:RESET_B 0.000207193
17 *1987:X 0.000207193
18 *401:150 0.00201971
19 *401:139 0.000313015
20 *401:132 0.000272567
21 *401:125 0.000271784
22 *401:118 0.000286158
23 *401:104 0.00036877
24 *401:92 0.000436023
25 *401:76 0.000479155
26 *401:69 0.000267643
27 *401:62 0.000284784
28 *401:38 0.000513744
29 *401:26 0.000360023
30 *401:10 0.000322852
31 *1850:RESET_B *1845:RESET_B 0.000153054
32 *1850:RESET_B *1848:RESET_B 0.000254337
33 *1850:RESET_B *1849:RESET_B 0.000102273
34 *1850:RESET_B *402:18 0
35 *1850:RESET_B *402:30 0
36 *1850:RESET_B *402:40 0
37 *1850:RESET_B *402:52 0
38 *1850:RESET_B *402:62 0
39 *1850:RESET_B *402:74 0
40 *1850:RESET_B *402:90 0
41 *1850:RESET_B *402:98 0.000397141
42 *1850:RESET_B *402:105 0.000154762
43 mstream_o[12] *401:139 0
44 mstream_o[12] *401:150 0
45 mstream_o[1] *1823:RESET_B 0.00010096
46 mstream_o[22] *1850:RESET_B 0
47 mstream_o[25] *1850:RESET_B 0
48 mstream_o[27] *1850:RESET_B 0
49 mstream_o[2] *1826:RESET_B 0
50 mstream_o[2] *401:38 0
51 *1833:D *401:104 0
52 *1833:D *401:118 0
53 *1833:D *401:125 0
54 *1839:D *1850:RESET_B 0
55 *357:16 *401:62 0
56 *357:16 *401:69 0
57 *357:16 *401:76 0
58 *357:16 *401:92 0
59 *357:16 *401:104 0
60 *357:16 *401:118 0
61 *357:16 *401:125 0
62 *357:16 *401:132 0
63 *357:16 *401:139 0
64 *357:16 *401:150 0
65 *357:20 *1826:RESET_B 5.39166e-06
66 *390:37 *1850:RESET_B 0
67 *390:43 *1850:RESET_B 0
*RES
1 *1987:X *1823:RESET_B 13.0589 
2 *1823:RESET_B *401:10 4.5 
3 *401:10 *1822:RESET_B 6.91964 
4 *401:10 *401:26 3.21429 
5 *401:26 *1824:RESET_B 5.40179 
6 *401:26 *401:38 1.94643 
7 *401:38 *1825:RESET_B 6.11607 
8 *401:38 *1826:RESET_B 8.5625 
9 *1826:RESET_B *401:62 6.44643 
10 *401:62 *1827:RESET_B 4.5 
11 *401:62 *401:69 3.16071 
12 *401:69 *1828:RESET_B 4.5 
13 *401:69 *401:76 1.64286 
14 *401:76 *1829:RESET_B 6.52679 
15 *401:76 *401:92 3.82143 
16 *401:92 *1830:RESET_B 5.40179 
17 *401:92 *401:104 2.55357 
18 *401:104 *1831:RESET_B 4.97321 
19 *401:104 *401:118 3.51786 
20 *401:118 *1832:RESET_B 4.5 
21 *401:118 *401:125 1.94643 
22 *401:125 *1833:RESET_B 4.5 
23 *401:125 *401:132 3.16071 
24 *401:132 *1834:RESET_B 4.5 
25 *401:132 *401:139 1.94643 
26 *401:139 *1835:RESET_B 4.5 
27 *401:139 *401:150 3.51786 
28 *401:150 *1836:RESET_B 5.40179 
29 *401:150 *1850:RESET_B 39.5893 
*END

*D_NET *402 0.00760579
*CONN
*I *1845:RESET_B I *D sky130_fd_sc_hd__dfrtp_4
*I *1849:RESET_B I *D sky130_fd_sc_hd__dfrtp_4
*I *1848:RESET_B I *D sky130_fd_sc_hd__dfrtp_4
*I *1847:RESET_B I *D sky130_fd_sc_hd__dfrtp_4
*I *1846:RESET_B I *D sky130_fd_sc_hd__dfrtp_4
*I *1844:RESET_B I *D sky130_fd_sc_hd__dfrtp_4
*I *1843:RESET_B I *D sky130_fd_sc_hd__dfrtp_4
*I *1842:RESET_B I *D sky130_fd_sc_hd__dfrtp_4
*I *1841:RESET_B I *D sky130_fd_sc_hd__dfrtp_4
*I *1840:RESET_B I *D sky130_fd_sc_hd__dfrtp_4
*I *1839:RESET_B I *D sky130_fd_sc_hd__dfrtp_4
*I *1838:RESET_B I *D sky130_fd_sc_hd__dfrtp_4
*I *1837:RESET_B I *D sky130_fd_sc_hd__dfrtp_4
*I *1988:X O *D sky130_fd_sc_hd__buf_4
*CAP
1 *1845:RESET_B 7.75849e-05
2 *1849:RESET_B 0.00022585
3 *1848:RESET_B 0.000338341
4 *1847:RESET_B 0
5 *1846:RESET_B 0
6 *1844:RESET_B 0.000249567
7 *1843:RESET_B 0.000116395
8 *1842:RESET_B 0.000228712
9 *1841:RESET_B 0.000116395
10 *1840:RESET_B 0.000228712
11 *1839:RESET_B 8.96224e-05
12 *1838:RESET_B 0.000230001
13 *1837:RESET_B 6.076e-05
14 *1988:X 0.000228786
15 *402:105 0.000184349
16 *402:98 0.000253184
17 *402:90 0.000479773
18 *402:74 0.000580473
19 *402:62 0.000517161
20 *402:52 0.000404844
21 *402:40 0.000494334
22 *402:30 0.0003717
23 *402:18 0.000538819
24 *402:8 0.000451779
25 mstream_o[16] *1838:RESET_B 1.24368e-05
26 mstream_o[17] *402:40 5.2542e-05
27 mstream_o[18] *1840:RESET_B 6.05161e-06
28 mstream_o[20] *1842:RESET_B 6.05161e-06
29 *1850:RESET_B *1845:RESET_B 0.000153054
30 *1850:RESET_B *1848:RESET_B 0.000254337
31 *1850:RESET_B *1849:RESET_B 0.000102273
32 *1850:RESET_B *402:18 0
33 *1850:RESET_B *402:30 0
34 *1850:RESET_B *402:40 0
35 *1850:RESET_B *402:52 0
36 *1850:RESET_B *402:62 0
37 *1850:RESET_B *402:74 0
38 *1850:RESET_B *402:90 0
39 *1850:RESET_B *402:98 0.000397141
40 *1850:RESET_B *402:105 0.000154762
41 *390:43 *1848:RESET_B 0
*RES
1 *1988:X *402:8 12.7286 
2 *402:8 *1837:RESET_B 0.883929 
3 *402:8 *402:18 7.35714 
4 *402:18 *1838:RESET_B 7.86607 
5 *402:18 *402:30 2.25 
6 *402:30 *1839:RESET_B 5.79464 
7 *402:30 *402:40 2.85714 
8 *402:40 *1840:RESET_B 7.86607 
9 *402:40 *402:52 2.25 
10 *402:52 *1841:RESET_B 6.20536 
11 *402:52 *402:62 2.85714 
12 *402:62 *1842:RESET_B 7.86607 
13 *402:62 *402:74 2.25 
14 *402:74 *1843:RESET_B 6.20536 
15 *402:74 *402:90 9.96429 
16 *402:90 *1844:RESET_B 0.883929 
17 *1844:RESET_B *402:98 9.48214 
18 *402:98 *1846:RESET_B 4.5 
19 *402:98 *402:105 1.94643 
20 *402:105 *1847:RESET_B 4.5 
21 *402:105 *1848:RESET_B 7.66071 
22 *1848:RESET_B *1849:RESET_B 12.9911 
23 *402:90 *1845:RESET_B 10.9464 
*END

*D_NET *403 0.0178772
*CONN
*I *1764:A I *D sky130_fd_sc_hd__nor4b_1
*I *1762:A I *D sky130_fd_sc_hd__nor4b_1
*I *1749:A I *D sky130_fd_sc_hd__nor4b_1
*I *1746:A I *D sky130_fd_sc_hd__nor4b_1
*I *1748:A I *D sky130_fd_sc_hd__nor4b_1
*I *1744:A I *D sky130_fd_sc_hd__nor4b_1
*I *1745:A I *D sky130_fd_sc_hd__nor4b_1
*I *1742:A I *D sky130_fd_sc_hd__nor4b_1
*I *1743:A I *D sky130_fd_sc_hd__nor4b_1
*I *1740:A I *D sky130_fd_sc_hd__nor4b_1
*I *1741:A I *D sky130_fd_sc_hd__nor4b_1
*I *1739:A I *D sky130_fd_sc_hd__nor4b_1
*I *1738:A I *D sky130_fd_sc_hd__nor4b_1
*I *1737:A I *D sky130_fd_sc_hd__nor4b_1
*I *1747:A I *D sky130_fd_sc_hd__nor4b_1
*I *1763:A I *D sky130_fd_sc_hd__nor4b_1
*I *1989:X O *D sky130_fd_sc_hd__buf_4
*CAP
1 *1764:A 7.42644e-05
2 *1762:A 0
3 *1749:A 5.18347e-05
4 *1746:A 4.40189e-05
5 *1748:A 8.84288e-05
6 *1744:A 5.77132e-05
7 *1745:A 0.000109302
8 *1742:A 7.27042e-05
9 *1743:A 0.000106846
10 *1740:A 6.84254e-05
11 *1741:A 0
12 *1739:A 6.61714e-05
13 *1738:A 0
14 *1737:A 0.000218986
15 *1747:A 0
16 *1763:A 2.22847e-05
17 *1989:X 6.58465e-05
18 *403:72 0.000289984
19 *403:70 0.000247191
20 *403:66 0.00035705
21 *403:58 0.000419199
22 *403:56 0.000363792
23 *403:54 0.000323107
24 *403:52 0.000316597
25 *403:50 0.000257746
26 *403:48 0.000266488
27 *403:46 0.000231321
28 *403:42 0.000235374
29 *403:33 0.00162105
30 *403:21 0.00165805
31 *403:15 0.000304279
32 *403:6 0.00019679
33 *403:6 *1989:A 0.000186387
34 *403:21 *416:128 0
35 *403:33 *1997:A 6.83482e-05
36 *403:33 *411:47 0
37 *403:33 *411:51 0
38 *403:33 *411:53 0
39 *403:33 *411:55 0
40 *403:33 *411:57 0
41 *403:33 *411:59 0
42 *403:33 *411:61 0
43 *403:33 *416:130 9.30093e-05
44 *403:33 *416:132 0.000229218
45 *433:DIODE *1737:A 0.000105546
46 *437:DIODE *403:33 0
47 *1737:C *1737:A 6.85983e-05
48 *1739:B *1739:A 0.000354345
49 *1739:C *1739:A 2.44318e-05
50 *1739:D_N *1739:A 0.000310532
51 *1740:B *1740:A 1.24368e-05
52 *1741:B *403:66 1.24368e-05
53 *1741:D_N *403:66 0.000306297
54 *1742:B *1742:A 1.24368e-05
55 *1743:B *1743:A 1.24368e-05
56 *1743:C *1743:A 9.41642e-05
57 *1743:D_N *1743:A 9.60875e-05
58 *1743:D_N *403:54 0.000114833
59 *1743:D_N *403:56 0.000249486
60 *1743:D_N *403:58 1.02504e-05
61 *1744:B *1744:A 2.26499e-05
62 *1744:C *1744:A 1.21258e-05
63 *1745:B *1745:A 4.74534e-05
64 *1745:C *1745:A 1.98839e-05
65 *1745:D_N *1745:A 0.00014051
66 *1746:B *1746:A 1.24368e-05
67 *1746:C *1746:A 5.56205e-05
68 *1747:B *403:33 1.32056e-05
69 *1747:B *403:42 7.84688e-05
70 *1747:C *403:42 1.37693e-05
71 *1747:D_N *403:33 5.71472e-05
72 *1748:B *1748:A 6.05161e-06
73 *1748:C *1748:A 0.000181374
74 *1748:D_N *1748:A 5.49489e-05
75 *1748:D_N *403:46 7.17836e-05
76 *1748:D_N *403:48 0.000119684
77 *1748:D_N *403:50 5.80706e-06
78 *1749:B *1749:A 1.24368e-05
79 *1749:B *403:42 0
80 *1749:C *1749:A 1.8729e-05
81 *1749:C *403:42 9.38543e-05
82 *1749:D_N *1749:A 9.60875e-05
83 *1749:D_N *403:33 0
84 *1750:B *403:33 0
85 *1750:D_N *403:33 5.81116e-05
86 *1762:C *403:33 2.36643e-05
87 *1762:D_N *403:33 0.000269378
88 *1763:B *1764:A 4.08637e-05
89 *1763:B *403:15 0.000185118
90 *1763:D_N *403:6 7.0611e-05
91 *1764:B *1764:A 3.5912e-05
92 *1764:C *1764:A 3.90883e-05
93 *1764:D_N *1764:A 9.90431e-05
94 *1851:D *1737:A 3.1367e-05
95 *1862:D *1749:A 0.000178847
96 *1862:D *403:42 4.60153e-05
97 *384:18 *1764:A 0.000183444
98 *384:18 *403:21 2.21254e-05
99 *384:20 *403:21 0.000206166
100 *384:34 *403:21 1.00332e-05
101 *384:34 *403:33 0
102 *384:66 *403:66 1.38323e-05
103 *394:10 *1737:A 0.000136676
104 *394:29 *1737:A 1.18064e-05
105 *394:35 *1737:A 5.37741e-06
106 *394:35 *403:70 3.71887e-05
107 *394:35 *403:72 8.2377e-05
108 *394:47 *403:66 0.000178847
109 *394:57 *1740:A 1.73088e-05
110 *394:57 *403:70 4.13122e-06
111 *394:68 *403:58 5.56943e-05
112 *394:68 *403:66 1.88398e-05
113 *394:81 *403:58 1.91414e-05
114 *394:94 *403:54 4.22135e-06
115 *394:100 *403:52 0.00011556
116 *394:100 *403:54 5.40539e-05
117 *394:113 *403:50 0.000114836
118 *394:113 *403:52 7.98318e-05
119 *394:128 *403:46 2.27129e-05
120 *394:128 *403:48 0.000212301
121 *394:128 *403:50 5.7119e-05
122 *394:134 *1746:A 6.05161e-06
123 *394:147 *403:33 0
124 *394:157 *403:33 0.00283284
125 *394:157 *403:42 5.20669e-05
126 *394:163 *403:21 5.35405e-05
127 *400:82 *1737:A 7.80051e-05
128 *400:82 *403:50 5.53592e-05
129 *400:82 *403:52 6.72902e-05
130 *400:82 *403:54 1.30798e-05
131 *400:82 *403:70 0.000185304
132 *400:82 *403:72 0.00016188
*RES
1 *1989:X *403:6 11.4786 
2 *403:6 *1763:A 9.72857 
3 *403:6 *403:15 2.17857 
4 *403:15 *403:21 12.1607 
5 *403:21 *403:33 49.3214 
6 *403:33 *1747:A 9.3 
7 *403:33 *403:42 3.01786 
8 *403:42 *403:46 6.44643 
9 *403:46 *403:48 2.85714 
10 *403:48 *403:50 2.25 
11 *403:50 *403:52 2.55357 
12 *403:52 *403:54 2.25 
13 *403:54 *403:56 3.16071 
14 *403:56 *403:58 1.94643 
15 *403:58 *403:66 9.85714 
16 *403:66 *403:70 7.05357 
17 *403:70 *403:72 2.25 
18 *403:72 *1737:A 18.5321 
19 *403:72 *1738:A 13.8 
20 *403:70 *1739:A 17.2107 
21 *403:66 *1741:A 9.3 
22 *403:58 *1740:A 15.0679 
23 *403:56 *1743:A 15.9964 
24 *403:54 *1742:A 15.0679 
25 *403:52 *1745:A 15.9964 
26 *403:50 *1744:A 14.7643 
27 *403:48 *1748:A 15.9964 
28 *403:46 *1746:A 14.7643 
29 *403:42 *1749:A 11.0679 
30 *403:21 *1762:A 9.3 
31 *403:15 *1764:A 11.9071 
*END

*D_NET *404 0.0133693
*CONN
*I *1853:RESET_B I *D sky130_fd_sc_hd__dfrtp_4
*I *1879:RESET_B I *D sky130_fd_sc_hd__dfrtp_4
*I *1865:RESET_B I *D sky130_fd_sc_hd__dfrtp_4
*I *1864:RESET_B I *D sky130_fd_sc_hd__dfrtp_4
*I *1863:RESET_B I *D sky130_fd_sc_hd__dfrtp_4
*I *1862:RESET_B I *D sky130_fd_sc_hd__dfrtp_4
*I *1861:RESET_B I *D sky130_fd_sc_hd__dfrtp_4
*I *1860:RESET_B I *D sky130_fd_sc_hd__dfrtp_4
*I *1859:RESET_B I *D sky130_fd_sc_hd__dfrtp_4
*I *1858:RESET_B I *D sky130_fd_sc_hd__dfrtp_4
*I *1857:RESET_B I *D sky130_fd_sc_hd__dfrtp_4
*I *1856:RESET_B I *D sky130_fd_sc_hd__dfrtp_4
*I *1855:RESET_B I *D sky130_fd_sc_hd__dfrtp_4
*I *1854:RESET_B I *D sky130_fd_sc_hd__dfrtp_4
*I *1852:RESET_B I *D sky130_fd_sc_hd__dfrtp_4
*I *1851:RESET_B I *D sky130_fd_sc_hd__dfrtp_4
*I *1990:X O *D sky130_fd_sc_hd__clkbuf_8
*CAP
1 *1853:RESET_B 0.000304689
2 *1879:RESET_B 0.00138665
3 *1865:RESET_B 9.81336e-05
4 *1864:RESET_B 0
5 *1863:RESET_B 0
6 *1862:RESET_B 0.000332516
7 *1861:RESET_B 0
8 *1860:RESET_B 8.76674e-05
9 *1859:RESET_B 0
10 *1858:RESET_B 8.76674e-05
11 *1857:RESET_B 0.000137782
12 *1856:RESET_B 5.64093e-05
13 *1855:RESET_B 0.000120723
14 *1854:RESET_B 5.64093e-05
15 *1852:RESET_B 3.59957e-05
16 *1851:RESET_B 0.000221148
17 *1990:X 0
18 *404:148 0.00171447
19 *404:137 0.000395093
20 *404:130 0.000282459
21 *404:111 0.000414096
22 *404:99 0.000414694
23 *404:92 0.000327027
24 *404:80 0.000451689
25 *404:68 0.000430032
26 *404:56 0.000378172
27 *404:44 0.00044452
28 *404:32 0.000469008
29 *404:18 0.000596435
30 *404:14 0.000705715
31 *404:4 0.000345431
32 *1879:RESET_B *1866:RESET_B 0.000128146
33 *1879:RESET_B *1878:RESET_B 0.000227736
34 *1879:RESET_B *405:23 0.000277524
35 *1879:RESET_B *405:30 0.000125717
36 *1879:RESET_B *405:42 0.000275101
37 *1879:RESET_B *405:49 0.000154762
38 *1879:RESET_B *405:56 0.000254337
39 *1879:RESET_B *405:63 0.000154762
40 *1879:RESET_B *405:70 0.000254337
41 *1879:RESET_B *405:77 0.000128146
42 *1879:RESET_B *405:89 0.000277524
43 *1879:RESET_B *405:96 0.000177941
44 mstream_o[29] *1851:RESET_B 0.00014285
45 mstream_o[35] *404:80 0
46 mstream_o[35] *404:92 0
47 mstream_o[40] *404:130 0
48 mstream_o[40] *404:137 0
49 mstream_o[45] *1879:RESET_B 0
50 mstream_o[50] *1879:RESET_B 0
51 mstream_o[53] *1879:RESET_B 0
52 mstream_o[55] *1879:RESET_B 0
53 *1853:CLK *1857:RESET_B 5.01883e-05
54 *1853:CLK *404:32 0
55 *1853:CLK *404:44 0
56 *1853:CLK *404:56 0
57 *1853:CLK *404:68 0
58 *1853:CLK *404:80 0
59 *1853:D *1853:RESET_B 9.5586e-05
60 *2:13 *1853:RESET_B 0.000101545
61 *2:13 *404:14 0.000248486
62 *390:37 *404:130 0
63 *390:37 *404:137 0
64 *390:37 *404:148 0
*RES
1 *1990:X *404:4 9.3 
2 *404:4 *1851:RESET_B 4.16964 
3 *404:4 *404:14 7.66071 
4 *404:14 *404:18 8.32143 
5 *404:18 *1852:RESET_B 0.473214 
6 *404:18 *404:32 9.53571 
7 *404:32 *1854:RESET_B 5.40179 
8 *404:32 *404:44 1.94643 
9 *404:44 *1855:RESET_B 6.11607 
10 *404:44 *404:56 3.16071 
11 *404:56 *1856:RESET_B 5.40179 
12 *404:56 *404:68 1.94643 
13 *404:68 *1857:RESET_B 6.52679 
14 *404:68 *404:80 2.55357 
15 *404:80 *1858:RESET_B 6.00893 
16 *404:80 *404:92 2.85714 
17 *404:92 *1859:RESET_B 4.5 
18 *404:92 *404:99 2.25 
19 *404:99 *1860:RESET_B 6.00893 
20 *404:99 *404:111 2.85714 
21 *404:111 *1861:RESET_B 4.5 
22 *404:111 *1862:RESET_B 8.25893 
23 *1862:RESET_B *404:130 6.44643 
24 *404:130 *1863:RESET_B 4.5 
25 *404:130 *404:137 3.16071 
26 *404:137 *1864:RESET_B 4.5 
27 *404:137 *404:148 3.82143 
28 *404:148 *1865:RESET_B 6.00893 
29 *404:148 *1879:RESET_B 38.0714 
30 *404:14 *1853:RESET_B 9.33036 
*END

*D_NET *405 0.00618806
*CONN
*I *1878:RESET_B I *D sky130_fd_sc_hd__dfrtp_4
*I *1877:RESET_B I *D sky130_fd_sc_hd__dfrtp_4
*I *1876:RESET_B I *D sky130_fd_sc_hd__dfrtp_4
*I *1875:RESET_B I *D sky130_fd_sc_hd__dfrtp_4
*I *1874:RESET_B I *D sky130_fd_sc_hd__dfrtp_4
*I *1873:RESET_B I *D sky130_fd_sc_hd__dfrtp_4
*I *1872:RESET_B I *D sky130_fd_sc_hd__dfrtp_4
*I *1871:RESET_B I *D sky130_fd_sc_hd__dfrtp_4
*I *1870:RESET_B I *D sky130_fd_sc_hd__dfrtp_4
*I *1869:RESET_B I *D sky130_fd_sc_hd__dfrtp_4
*I *1868:RESET_B I *D sky130_fd_sc_hd__dfrtp_4
*I *1866:RESET_B I *D sky130_fd_sc_hd__dfrtp_4
*I *1867:RESET_B I *D sky130_fd_sc_hd__dfrtp_4
*I *1991:X O *D sky130_fd_sc_hd__buf_4
*CAP
1 *1878:RESET_B 0.000104026
2 *1877:RESET_B 3.77169e-05
3 *1876:RESET_B 0
4 *1875:RESET_B 0.000128044
5 *1874:RESET_B 0
6 *1873:RESET_B 0
7 *1872:RESET_B 0
8 *1871:RESET_B 0
9 *1870:RESET_B 0
10 *1869:RESET_B 0.000145906
11 *1868:RESET_B 0
12 *1866:RESET_B 6.47779e-05
13 *1867:RESET_B 0.000419497
14 *1991:X 0.000257553
15 *405:96 0.000226512
16 *405:89 0.000212783
17 *405:77 0.000317778
18 *405:70 0.000168459
19 *405:63 0.00018543
20 *405:56 0.00018543
21 *405:49 0.000177814
22 *405:42 0.000197765
23 *405:30 0.000340599
24 *405:23 0.000188419
25 *405:14 0.000347138
26 *1879:RESET_B *1866:RESET_B 0.000128146
27 *1879:RESET_B *1878:RESET_B 0.000227736
28 *1879:RESET_B *405:23 0.000277524
29 *1879:RESET_B *405:30 0.000125717
30 *1879:RESET_B *405:42 0.000275101
31 *1879:RESET_B *405:49 0.000154762
32 *1879:RESET_B *405:56 0.000254337
33 *1879:RESET_B *405:63 0.000154762
34 *1879:RESET_B *405:70 0.000254337
35 *1879:RESET_B *405:77 0.000128146
36 *1879:RESET_B *405:89 0.000277524
37 *1879:RESET_B *405:96 0.000177941
38 *359:8 *1869:RESET_B 4.63768e-05
39 *390:33 *405:89 0
40 *390:33 *405:96 0
41 *390:35 *405:70 0
42 *390:35 *405:77 0
43 *390:35 *405:89 0
44 *390:37 *1866:RESET_B 0
45 *390:37 *405:23 0
46 *390:37 *405:30 0
47 *390:37 *405:42 0
48 *390:37 *405:49 0
49 *390:37 *405:56 0
50 *390:37 *405:63 0
*RES
1 *1991:X *1867:RESET_B 13.4696 
2 *1867:RESET_B *405:14 6.52679 
3 *405:14 *1866:RESET_B 6.14286 
4 *405:14 *405:23 3.46429 
5 *405:23 *1868:RESET_B 4.5 
6 *405:23 *405:30 1.64286 
7 *405:30 *1869:RESET_B 6.52679 
8 *405:30 *405:42 3.46429 
9 *405:42 *1870:RESET_B 4.5 
10 *405:42 *405:49 1.94643 
11 *405:49 *1871:RESET_B 4.5 
12 *405:49 *405:56 3.16071 
13 *405:56 *1872:RESET_B 4.5 
14 *405:56 *405:63 1.94643 
15 *405:63 *1873:RESET_B 4.5 
16 *405:63 *405:70 3.16071 
17 *405:70 *1874:RESET_B 4.5 
18 *405:70 *405:77 1.64286 
19 *405:77 *1875:RESET_B 6.11607 
20 *405:77 *405:89 3.46429 
21 *405:89 *1876:RESET_B 4.5 
22 *405:89 *405:96 2.25 
23 *405:96 *1877:RESET_B 4.97321 
24 *405:96 *1878:RESET_B 7.35714 
*END

*D_NET *406 0.0124534
*CONN
*I *1880:RESET_B I *D sky130_fd_sc_hd__dfrtp_4
*I *1907:RESET_B I *D sky130_fd_sc_hd__dfrtp_4
*I *1906:RESET_B I *D sky130_fd_sc_hd__dfrtp_4
*I *1893:RESET_B I *D sky130_fd_sc_hd__dfrtp_4
*I *1892:RESET_B I *D sky130_fd_sc_hd__dfrtp_4
*I *1891:RESET_B I *D sky130_fd_sc_hd__dfrtp_4
*I *1890:RESET_B I *D sky130_fd_sc_hd__dfrtp_4
*I *1889:RESET_B I *D sky130_fd_sc_hd__dfrtp_4
*I *1888:RESET_B I *D sky130_fd_sc_hd__dfrtp_4
*I *1887:RESET_B I *D sky130_fd_sc_hd__dfrtp_4
*I *1885:RESET_B I *D sky130_fd_sc_hd__dfrtp_4
*I *1886:RESET_B I *D sky130_fd_sc_hd__dfrtp_4
*I *1884:RESET_B I *D sky130_fd_sc_hd__dfrtp_4
*I *1883:RESET_B I *D sky130_fd_sc_hd__dfrtp_4
*I *1882:RESET_B I *D sky130_fd_sc_hd__dfrtp_4
*I *1881:RESET_B I *D sky130_fd_sc_hd__dfrtp_4
*I *1992:X O *D sky130_fd_sc_hd__clkbuf_8
*CAP
1 *1880:RESET_B 0.000166285
2 *1907:RESET_B 0.000255893
3 *1906:RESET_B 0
4 *1893:RESET_B 0.00156412
5 *1892:RESET_B 6.26945e-05
6 *1891:RESET_B 2.31074e-05
7 *1890:RESET_B 5.64093e-05
8 *1889:RESET_B 3.35824e-05
9 *1888:RESET_B 4.00857e-05
10 *1887:RESET_B 2.31074e-05
11 *1885:RESET_B 0.000265972
12 *1886:RESET_B 2.95689e-05
13 *1884:RESET_B 5.64009e-05
14 *1883:RESET_B 0.000155769
15 *1882:RESET_B 0
16 *1881:RESET_B 0.00024346
17 *1992:X 0.000158113
18 *406:182 0.000748887
19 *406:180 0.00193951
20 *406:145 0.000431812
21 *406:131 0.000430025
22 *406:119 0.000381187
23 *406:105 0.000322806
24 *406:95 0.000377399
25 *406:77 0.000360421
26 *406:57 0.000295541
27 *406:55 0.000428026
28 *406:39 0.000592481
29 *406:23 0.000483797
30 *406:16 0.000285511
31 *406:6 0.00038247
32 *406:180 *407:26 0
33 *406:180 *407:38 0
34 *406:180 *407:50 0
35 *406:180 *407:62 0
36 *406:180 *407:69 0
37 *406:180 *407:89 7.87609e-05
38 *406:180 *407:100 8.32171e-05
39 *406:182 *1905:RESET_B 6.39901e-05
40 *406:182 *407:100 0.000172546
41 *406:182 *407:110 7.80929e-05
42 *406:182 *407:128 0.000205366
43 mstream_o[59] *406:6 0.00010096
44 mstream_o[60] *406:23 0
45 mstream_o[60] *406:39 0
46 mstream_o[64] *1885:RESET_B 0.000473885
47 mstream_o[68] *406:131 0
48 mstream_o[73] *406:180 8.41429e-05
49 mstream_o[78] *406:180 4.34467e-05
50 mstream_o[83] *406:182 0
51 *1885:CLK *1885:RESET_B 0.000184561
52 *1885:CLK *1886:RESET_B 1.16179e-05
53 *1885:CLK *406:55 0.000157381
54 *237:10 *1880:RESET_B 2.43023e-05
55 *361:18 *1887:RESET_B 4.83516e-05
56 *361:18 *406:95 0
57 *361:18 *406:119 0
58 *362:8 *1891:RESET_B 4.83516e-05
*RES
1 *1992:X *406:6 12.3 
2 *406:6 *1881:RESET_B 0.883929 
3 *1881:RESET_B *406:16 7.83036 
4 *406:16 *1882:RESET_B 4.5 
5 *406:16 *406:23 1.64286 
6 *406:23 *1883:RESET_B 6.52679 
7 *406:23 *406:39 3.82143 
8 *406:39 *1884:RESET_B 5.40179 
9 *406:39 *406:55 6.25 
10 *406:55 *406:57 4.5 
11 *406:57 *1886:RESET_B 0.473214 
12 *406:57 *1885:RESET_B 7.61607 
13 *406:55 *406:77 1.94643 
14 *406:77 *1887:RESET_B 4.97321 
15 *406:77 *406:95 4.48214 
16 *406:95 *1888:RESET_B 4.97321 
17 *406:95 *406:105 1.94643 
18 *406:105 *1889:RESET_B 4.97321 
19 *406:105 *406:119 3.21429 
20 *406:119 *1890:RESET_B 5.40179 
21 *406:119 *406:131 2.55357 
22 *406:131 *1891:RESET_B 4.97321 
23 *406:131 *406:145 4.23214 
24 *406:145 *1892:RESET_B 5.38393 
25 *406:145 *1893:RESET_B 6.44643 
26 *1893:RESET_B *406:180 39.1696 
27 *406:180 *406:182 11.6607 
28 *406:182 *1906:RESET_B 4.5 
29 *406:182 *1907:RESET_B 8.16964 
30 *406:6 *1880:RESET_B 11.8304 
*END

*D_NET *407 0.00527227
*CONN
*I *1905:RESET_B I *D sky130_fd_sc_hd__dfrtp_4
*I *1904:RESET_B I *D sky130_fd_sc_hd__dfrtp_4
*I *1903:RESET_B I *D sky130_fd_sc_hd__dfrtp_4
*I *1902:RESET_B I *D sky130_fd_sc_hd__dfrtp_4
*I *1901:RESET_B I *D sky130_fd_sc_hd__dfrtp_4
*I *1900:RESET_B I *D sky130_fd_sc_hd__dfrtp_4
*I *1899:RESET_B I *D sky130_fd_sc_hd__dfrtp_4
*I *1898:RESET_B I *D sky130_fd_sc_hd__dfrtp_4
*I *1897:RESET_B I *D sky130_fd_sc_hd__dfrtp_4
*I *1896:RESET_B I *D sky130_fd_sc_hd__dfrtp_4
*I *1894:RESET_B I *D sky130_fd_sc_hd__dfrtp_4
*I *1895:RESET_B I *D sky130_fd_sc_hd__dfrtp_4
*I *1993:X O *D sky130_fd_sc_hd__clkbuf_4
*CAP
1 *1905:RESET_B 7.05962e-05
2 *1904:RESET_B 3.52494e-05
3 *1903:RESET_B 3.35824e-05
4 *1902:RESET_B 4.00857e-05
5 *1901:RESET_B 0
6 *1900:RESET_B 0.00010143
7 *1899:RESET_B 0
8 *1898:RESET_B 0.00010143
9 *1897:RESET_B 0.000120723
10 *1896:RESET_B 5.64093e-05
11 *1894:RESET_B 0.000151251
12 *1895:RESET_B 0.000211896
13 *1993:X 0.000211896
14 *407:128 0.000259576
15 *407:110 0.000270321
16 *407:100 0.000259547
17 *407:89 0.000347657
18 *407:69 0.000444575
19 *407:62 0.00031909
20 *407:50 0.000453785
21 *407:38 0.000414832
22 *407:26 0.000360211
23 *407:10 0.00032615
24 *406:180 *407:26 0
25 *406:180 *407:38 0
26 *406:180 *407:50 0
27 *406:180 *407:62 0
28 *406:180 *407:69 0
29 *406:180 *407:89 7.87609e-05
30 *406:180 *407:100 8.32171e-05
31 *406:182 *1905:RESET_B 6.39901e-05
32 *406:182 *407:100 0.000172546
33 *406:182 *407:110 7.80929e-05
34 *406:182 *407:128 0.000205366
*RES
1 *1993:X *1895:RESET_B 12.6482 
2 *1895:RESET_B *407:10 4.5 
3 *407:10 *1894:RESET_B 6.91964 
4 *407:10 *407:26 3.21429 
5 *407:26 *1896:RESET_B 5.40179 
6 *407:26 *407:38 1.94643 
7 *407:38 *1897:RESET_B 6.11607 
8 *407:38 *407:50 2.55357 
9 *407:50 *1898:RESET_B 6.00893 
10 *407:50 *407:62 2.85714 
11 *407:62 *1899:RESET_B 4.5 
12 *407:62 *407:69 2.25 
13 *407:69 *1900:RESET_B 6.00893 
14 *407:69 *407:89 4.48214 
15 *407:89 *1901:RESET_B 4.5 
16 *407:89 *407:100 3.82143 
17 *407:100 *1902:RESET_B 4.97321 
18 *407:100 *407:110 1.94643 
19 *407:110 *1903:RESET_B 4.97321 
20 *407:110 *407:128 4.48214 
21 *407:128 *1904:RESET_B 4.97321 
22 *407:128 *1905:RESET_B 6.14286 
*END

*D_NET *408 0.0144201
*CONN
*I *1917:RESET_B I *D sky130_fd_sc_hd__dfrtp_4
*I *1918:RESET_B I *D sky130_fd_sc_hd__dfrtp_4
*I *1937:RESET_B I *D sky130_fd_sc_hd__dfrtp_4
*I *1936:RESET_B I *D sky130_fd_sc_hd__dfrtp_4
*I *1920:RESET_B I *D sky130_fd_sc_hd__dfrtp_4
*I *1921:RESET_B I *D sky130_fd_sc_hd__dfrtp_4
*I *1919:RESET_B I *D sky130_fd_sc_hd__dfrtp_4
*I *1916:RESET_B I *D sky130_fd_sc_hd__dfrtp_4
*I *1915:RESET_B I *D sky130_fd_sc_hd__dfrtp_4
*I *1914:RESET_B I *D sky130_fd_sc_hd__dfrtp_4
*I *1913:RESET_B I *D sky130_fd_sc_hd__dfrtp_4
*I *1912:RESET_B I *D sky130_fd_sc_hd__dfrtp_4
*I *1911:RESET_B I *D sky130_fd_sc_hd__dfrtp_4
*I *1910:RESET_B I *D sky130_fd_sc_hd__dfrtp_4
*I *1908:RESET_B I *D sky130_fd_sc_hd__dfrtp_4
*I *1909:RESET_B I *D sky130_fd_sc_hd__dfrtp_4
*I *1994:X O *D sky130_fd_sc_hd__clkbuf_8
*CAP
1 *1917:RESET_B 0.000452518
2 *1918:RESET_B 3.69653e-05
3 *1937:RESET_B 0.000627259
4 *1936:RESET_B 0.000210144
5 *1920:RESET_B 0.000155147
6 *1921:RESET_B 0.00024638
7 *1919:RESET_B 0.000475974
8 *1916:RESET_B 8.76674e-05
9 *1915:RESET_B 0.000120723
10 *1914:RESET_B 8.76674e-05
11 *1913:RESET_B 0.000155938
12 *1912:RESET_B 5.64093e-05
13 *1911:RESET_B 0
14 *1910:RESET_B 8.08494e-05
15 *1908:RESET_B 0.000266964
16 *1909:RESET_B 3.60762e-05
17 *1994:X 0.000330715
18 *408:182 0.000523961
19 *408:157 0.0020398
20 *408:135 0.00160707
21 *408:117 0.000562171
22 *408:105 0.000614482
23 *408:93 0.000473916
24 *408:81 0.000426978
25 *408:69 0.000429425
26 *408:57 0.000372066
27 *408:46 0.000318181
28 *408:34 0.000553146
29 *408:14 0.000611019
30 *408:6 0.000366791
31 *408:6 *449:DIODE 0.000128496
32 *408:6 *1994:A 0.000228508
33 *408:157 *409:20 0
34 *408:157 *409:32 0
35 *408:157 *409:44 0
36 *408:157 *409:56 0
37 *408:157 *409:68 0
38 *408:157 *409:80 0
39 *408:157 *409:92 0
40 mstream_o[106] *408:157 0.00013801
41 mstream_o[114] *1937:RESET_B 0
42 mstream_o[87] *408:6 2.41649e-05
43 mstream_o[91] *408:81 0
44 mstream_o[93] *408:105 0
45 mstream_o[93] *408:117 0
46 mstream_o[96] *408:117 0
47 *1821:B *408:157 0.000134748
48 *1917:CLK *1919:RESET_B 0
49 *1917:CLK *408:135 0.000207278
50 *1917:CLK *408:157 0.000508814
51 *1937:CLK *408:157 0.000455701
52 *20:8 *1936:RESET_B 5.33005e-05
53 *20:8 *1937:RESET_B 9.71197e-05
54 *356:130 *1921:RESET_B 0.000117578
55 *364:14 *408:157 0
*RES
1 *1994:X *408:6 15.175 
2 *408:6 *1909:RESET_B 0.473214 
3 *408:6 *408:14 4.5 
4 *408:14 *1908:RESET_B 8.25893 
5 *408:14 *408:34 10.1964 
6 *408:34 *1910:RESET_B 1.3125 
7 *408:34 *408:46 6.75 
8 *408:46 *1911:RESET_B 4.5 
9 *408:46 *408:57 3.51786 
10 *408:57 *1912:RESET_B 5.40179 
11 *408:57 *408:69 1.94643 
12 *408:69 *1913:RESET_B 6.52679 
13 *408:69 *408:81 2.55357 
14 *408:81 *1914:RESET_B 6.00893 
15 *408:81 *408:93 2.55357 
16 *408:93 *1915:RESET_B 6.11607 
17 *408:93 *408:105 2.55357 
18 *408:105 *1916:RESET_B 6.00893 
19 *408:105 *408:117 6.04464 
20 *408:117 *1919:RESET_B 7.73214 
21 *1919:RESET_B *408:135 11.5982 
22 *408:135 *1921:RESET_B 6.61607 
23 *1921:RESET_B *1920:RESET_B 11.8304 
24 *408:135 *408:157 31.6429 
25 *408:157 *1936:RESET_B 3.34821 
26 *408:157 *1937:RESET_B 19.75 
27 *408:117 *408:182 5.3125 
28 *408:182 *1918:RESET_B 0.473214 
29 *408:182 *1917:RESET_B 6.63393 
*END

*D_NET *409 0.00734179
*CONN
*I *1923:RESET_B I *D sky130_fd_sc_hd__dfrtp_4
*I *1935:RESET_B I *D sky130_fd_sc_hd__dfrtp_4
*I *1934:RESET_B I *D sky130_fd_sc_hd__dfrtp_4
*I *1933:RESET_B I *D sky130_fd_sc_hd__dfrtp_4
*I *1932:RESET_B I *D sky130_fd_sc_hd__dfrtp_4
*I *1931:RESET_B I *D sky130_fd_sc_hd__dfrtp_4
*I *1930:RESET_B I *D sky130_fd_sc_hd__dfrtp_4
*I *1929:RESET_B I *D sky130_fd_sc_hd__dfrtp_4
*I *1928:RESET_B I *D sky130_fd_sc_hd__dfrtp_4
*I *1927:RESET_B I *D sky130_fd_sc_hd__dfrtp_4
*I *1926:RESET_B I *D sky130_fd_sc_hd__dfrtp_4
*I *1925:RESET_B I *D sky130_fd_sc_hd__dfrtp_4
*I *1924:RESET_B I *D sky130_fd_sc_hd__dfrtp_4
*I *1922:RESET_B I *D sky130_fd_sc_hd__dfrtp_4
*I *1995:X O *D sky130_fd_sc_hd__buf_4
*CAP
1 *1923:RESET_B 0
2 *1935:RESET_B 0.000189041
3 *1934:RESET_B 0
4 *1933:RESET_B 8.76674e-05
5 *1932:RESET_B 0.000120723
6 *1931:RESET_B 0.0001071
7 *1930:RESET_B 5.81389e-05
8 *1929:RESET_B 0.000155938
9 *1928:RESET_B 5.64093e-05
10 *1927:RESET_B 0.000155938
11 *1926:RESET_B 3.23046e-05
12 *1925:RESET_B 0.000155938
13 *1924:RESET_B 5.64093e-05
14 *1922:RESET_B 5.80094e-05
15 *1995:X 0.000217788
16 *409:140 0.000402534
17 *409:128 0.000455872
18 *409:116 0.000568486
19 *409:104 0.000551441
20 *409:92 0.000383696
21 *409:80 0.000455921
22 *409:68 0.000363138
23 *409:56 0.000469111
24 *409:44 0.000353583
25 *409:32 0.000470772
26 *409:20 0.000367991
27 *409:16 0.000297986
28 *409:6 0.000387917
29 mstream_o[100] *409:6 0.000182425
30 mstream_o[106] *409:80 0
31 mstream_o[106] *409:92 0
32 mstream_o[113] *1935:RESET_B 0
33 mstream_o[114] *1935:RESET_B 0
34 *1821:A *1931:RESET_B 3.93575e-05
35 *1937:CLK *1930:RESET_B 5.52238e-05
36 *1937:CLK *1935:RESET_B 0
37 *1937:CLK *409:104 0
38 *1937:CLK *409:116 0
39 *1937:CLK *409:128 0
40 *1937:CLK *409:140 0
41 *1956:A *1926:RESET_B 1.92789e-05
42 *371:12 *1926:RESET_B 6.5647e-05
43 *408:157 *409:20 0
44 *408:157 *409:32 0
45 *408:157 *409:44 0
46 *408:157 *409:56 0
47 *408:157 *409:68 0
48 *408:157 *409:80 0
49 *408:157 *409:92 0
*RES
1 *1995:X *409:6 13.1214 
2 *409:6 *1922:RESET_B 0.883929 
3 *409:6 *409:16 6.44643 
4 *409:16 *409:20 3.39286 
5 *409:20 *1924:RESET_B 5.40179 
6 *409:20 *409:32 1.94643 
7 *409:32 *1925:RESET_B 6.52679 
8 *409:32 *409:44 3.16071 
9 *409:44 *1926:RESET_B 5.40179 
10 *409:44 *409:56 1.94643 
11 *409:56 *1927:RESET_B 6.52679 
12 *409:56 *409:68 3.16071 
13 *409:68 *1928:RESET_B 5.40179 
14 *409:68 *409:80 1.94643 
15 *409:80 *1929:RESET_B 6.52679 
16 *409:80 *409:92 2.85714 
17 *409:92 *1930:RESET_B 5.70536 
18 *409:92 *409:104 2.25 
19 *409:104 *1931:RESET_B 6.11607 
20 *409:104 *409:116 4.98214 
21 *409:116 *1932:RESET_B 6.11607 
22 *409:116 *409:128 2.55357 
23 *409:128 *1933:RESET_B 6.00893 
24 *409:128 *409:140 3.16071 
25 *409:140 *1934:RESET_B 4.5 
26 *409:140 *1935:RESET_B 8.01786 
27 *409:16 *1923:RESET_B 4.5 
*END

*D_NET *410 0.0339731
*CONN
*I *446:DIODE I *D sky130_fd_sc_hd__diode_2
*I *1995:A I *D sky130_fd_sc_hd__buf_4
*I *450:DIODE I *D sky130_fd_sc_hd__diode_2
*I *449:DIODE I *D sky130_fd_sc_hd__diode_2
*I *1994:A I *D sky130_fd_sc_hd__clkbuf_8
*I *448:DIODE I *D sky130_fd_sc_hd__diode_2
*I *1993:A I *D sky130_fd_sc_hd__clkbuf_4
*I *447:DIODE I *D sky130_fd_sc_hd__diode_2
*I *1992:A I *D sky130_fd_sc_hd__clkbuf_8
*I *1991:A I *D sky130_fd_sc_hd__buf_4
*I *445:DIODE I *D sky130_fd_sc_hd__diode_2
*I *1990:A I *D sky130_fd_sc_hd__clkbuf_8
*I *443:DIODE I *D sky130_fd_sc_hd__diode_2
*I *1988:A I *D sky130_fd_sc_hd__buf_4
*I *442:DIODE I *D sky130_fd_sc_hd__diode_2
*I *1987:A I *D sky130_fd_sc_hd__clkbuf_8
*I *1996:X O *D sky130_fd_sc_hd__buf_4
*CAP
1 *446:DIODE 6.01361e-05
2 *1995:A 0.000104143
3 *450:DIODE 0
4 *449:DIODE 0.000105896
5 *1994:A 3.4909e-05
6 *448:DIODE 4.68196e-05
7 *1993:A 0.000119651
8 *447:DIODE 5.50619e-05
9 *1992:A 0
10 *1991:A 3.17074e-05
11 *445:DIODE 7.48623e-05
12 *1990:A 2.52229e-05
13 *443:DIODE 0
14 *1988:A 0.000142273
15 *442:DIODE 5.67113e-05
16 *1987:A 0
17 *1996:X 0.000263663
18 *410:141 0.00160381
19 *410:123 0.000140805
20 *410:121 0.00316853
21 *410:103 0.000166471
22 *410:101 0.00332016
23 *410:87 9.56255e-05
24 *410:83 0.00365042
25 *410:79 0.00207255
26 *410:70 0.00175558
27 *410:55 0.00178924
28 *410:44 0.00148352
29 *410:28 0.000142273
30 *410:26 0.00341506
31 *410:12 5.67113e-05
32 *410:10 0.00226479
33 mstream_o[0] *410:10 0.000357883
34 mstream_o[100] *1995:A 0.000143375
35 mstream_o[1] *442:DIODE 0.000142157
36 mstream_o[29] *445:DIODE 5.03772e-05
37 mstream_o[29] *1990:A 5.52238e-05
38 mstream_o[59] *447:DIODE 0.000141554
39 mstream_o[59] *410:87 9.90431e-05
40 mstream_o[60] *410:101 0
41 mstream_o[68] *410:101 0
42 mstream_o[73] *410:121 0
43 mstream_o[78] *410:121 0
44 mstream_o[83] *410:121 0
45 mstream_o[87] *449:DIODE 0.000357433
46 mstream_o[87] *1994:A 0.000228508
47 mstream_o[88] *410:141 0
48 mstream_o[91] *410:141 0
49 mstream_o[93] *410:141 0
50 *1917:CLK *410:141 0
51 *2:13 *410:26 0
52 *2:13 *410:44 0
53 *2:13 *410:70 0
54 *2:13 *410:83 0
55 *3:9 *410:10 0
56 *3:9 *410:26 0
57 *356:10 *410:83 0
58 *356:16 *410:70 0.000410594
59 *356:16 *410:83 0
60 *356:18 *410:26 9.62384e-05
61 *356:18 *410:44 0.00139669
62 *356:18 *410:55 4.02462e-05
63 *356:18 *410:70 0.00138635
64 *356:22 *410:26 0.000144872
65 *356:90 *410:101 0.000464759
66 *356:110 *410:101 3.26141e-05
67 *356:126 *410:101 0.000221265
68 *356:126 *410:121 0.000844597
69 *356:126 *410:141 0.000696906
70 *356:158 *410:141 5.88152e-05
71 *361:18 *410:101 0
72 *408:6 *449:DIODE 0.000128496
73 *408:6 *1994:A 0.000228508
*RES
1 *1996:X *410:10 19.4607 
2 *410:10 *410:12 4.5 
3 *410:12 *1987:A 9.3 
4 *410:12 *442:DIODE 10.6571 
5 *410:10 *410:26 35.0357 
6 *410:26 *410:28 4.5 
7 *410:28 *1988:A 11.6929 
8 *410:28 *443:DIODE 9.3 
9 *410:26 *410:44 33.2143 
10 *410:44 *1990:A 14.3357 
11 *410:44 *410:55 1.03571 
12 *410:55 *445:DIODE 14.7464 
13 *410:55 *410:70 43.9286 
14 *410:70 *1991:A 9.83571 
15 *410:70 *410:79 1.03571 
16 *410:79 *410:83 37.7143 
17 *410:83 *410:87 5.44643 
18 *410:87 *1992:A 9.3 
19 *410:87 *447:DIODE 10.6571 
20 *410:83 *410:101 33.5179 
21 *410:101 *410:103 4.5 
22 *410:103 *1993:A 11.0857 
23 *410:103 *448:DIODE 9.83571 
24 *410:101 *410:121 34.7321 
25 *410:121 *410:123 4.5 
26 *410:123 *1994:A 11.4786 
27 *410:123 *449:DIODE 12.7107 
28 *410:121 *410:141 35.5893 
29 *410:141 *450:DIODE 9.3 
30 *410:141 *1995:A 11.6929 
31 *410:79 *446:DIODE 10.2464 
*END

*D_NET *411 0.00845306
*CONN
*I *1761:A I *D sky130_fd_sc_hd__nor4b_1
*I *1756:A I *D sky130_fd_sc_hd__nor4b_1
*I *1757:A I *D sky130_fd_sc_hd__nor4b_1
*I *1754:A I *D sky130_fd_sc_hd__nor4b_1
*I *1755:A I *D sky130_fd_sc_hd__nor4b_1
*I *1752:A I *D sky130_fd_sc_hd__nor4b_1
*I *1751:A I *D sky130_fd_sc_hd__nor4b_1
*I *1753:A I *D sky130_fd_sc_hd__nor4b_1
*I *1750:A I *D sky130_fd_sc_hd__nor4b_1
*I *1758:A I *D sky130_fd_sc_hd__nor4b_1
*I *1759:A I *D sky130_fd_sc_hd__nor4b_1
*I *1760:A I *D sky130_fd_sc_hd__nor4b_1
*I *1997:X O *D sky130_fd_sc_hd__clkbuf_4
*CAP
1 *1761:A 0.000161036
2 *1756:A 0
3 *1757:A 0.000114143
4 *1754:A 0
5 *1755:A 7.30268e-05
6 *1752:A 0
7 *1751:A 0.000152677
8 *1753:A 0.000219452
9 *1750:A 7.29758e-05
10 *1758:A 0.000102268
11 *1759:A 0
12 *1760:A 2.00462e-05
13 *1997:X 7.85486e-05
14 *411:61 0.000392163
15 *411:59 0.000328408
16 *411:57 0.000194289
17 *411:55 0.000273701
18 *411:53 0.000208597
19 *411:51 0.00032774
20 *411:47 0.000297462
21 *411:30 0.000476498
22 *411:21 0.000471038
23 *411:17 0.000601149
24 *411:6 0.000231821
25 *437:DIODE *1750:A 2.34969e-05
26 *437:DIODE *411:61 8.49884e-06
27 *1750:B *1750:A 7.6997e-05
28 *1750:B *411:61 5.13496e-05
29 *1750:C *1750:A 2.00031e-05
30 *1751:B *1751:A 0.000119863
31 *1751:C *1753:A 0.000137983
32 *1753:D_N *1753:A 1.98839e-05
33 *1753:D_N *411:57 2.61189e-05
34 *1753:D_N *411:59 1.30594e-05
35 *1755:C *1755:A 2.36643e-05
36 *1755:D_N *1755:A 0.000180079
37 *1756:D_N *411:47 5.65955e-05
38 *1757:B *1757:A 1.46231e-05
39 *1757:C *1757:A 0.000114279
40 *1757:D_N *1757:A 0.000178425
41 *1758:B *1758:A 1.13883e-05
42 *1758:C *1758:A 2.84026e-05
43 *1758:C *411:30 8.23811e-05
44 *1759:C *411:30 0.000112625
45 *1759:D_N *411:30 9.41642e-05
46 *1760:B *1760:A 1.02132e-05
47 *1760:B *411:17 2.9644e-05
48 *1760:C *411:17 5.49489e-05
49 *1760:D_N *411:6 9.99853e-05
50 *1761:B *1761:A 7.6644e-05
51 *1761:C *1761:A 2.58997e-05
52 *1866:D *1751:A 5.49489e-05
53 *1866:D *1753:A 6.1526e-06
54 *1873:D *411:30 1.46231e-05
55 *1875:D *411:17 5.33005e-05
56 *360:12 *1755:A 0.000223469
57 *384:34 *411:47 6.27037e-05
58 *384:34 *411:51 0.000172679
59 *384:34 *411:53 0.000242806
60 *384:34 *411:55 0.000147862
61 *384:34 *411:57 0.000169806
62 *385:25 *1761:A 8.90091e-05
63 *385:25 *411:21 0.000532644
64 *385:81 *411:59 0.000127246
65 *385:81 *411:61 6.75564e-05
66 *403:33 *411:47 0
67 *403:33 *411:51 0
68 *403:33 *411:53 0
69 *403:33 *411:55 0
70 *403:33 *411:57 0
71 *403:33 *411:59 0
72 *403:33 *411:61 0
*RES
1 *1997:X *411:6 10.6571 
2 *411:6 *1760:A 9.72857 
3 *411:6 *411:17 6.67857 
4 *411:17 *411:21 11.3036 
5 *411:21 *1759:A 9.3 
6 *411:21 *411:30 3.42857 
7 *411:30 *1758:A 11.0857 
8 *411:30 *411:47 12.8036 
9 *411:47 *411:51 6.75 
10 *411:51 *411:53 3.16071 
11 *411:53 *411:55 1.94643 
12 *411:55 *411:57 2.85714 
13 *411:57 *411:59 1.94643 
14 *411:59 *411:61 1.64286 
15 *411:61 *1750:A 15.5679 
16 *411:61 *1753:A 16.7107 
17 *411:59 *1751:A 16.8357 
18 *411:57 *1752:A 13.8 
19 *411:55 *1755:A 16.4071 
20 *411:53 *1754:A 13.8 
21 *411:51 *1757:A 16.4071 
22 *411:47 *1756:A 9.3 
23 *411:17 *1761:A 16.6571 
*END

*D_NET *412 0.0182211
*CONN
*I *1790:A I *D sky130_fd_sc_hd__nor4b_1
*I *1789:A I *D sky130_fd_sc_hd__nor4b_1
*I *1788:A I *D sky130_fd_sc_hd__nor4b_1
*I *1777:A I *D sky130_fd_sc_hd__nor4b_1
*I *1775:A I *D sky130_fd_sc_hd__nor4b_1
*I *1774:A I *D sky130_fd_sc_hd__nor4b_1
*I *1772:A I *D sky130_fd_sc_hd__nor4b_1
*I *1773:A I *D sky130_fd_sc_hd__nor4b_1
*I *1770:A I *D sky130_fd_sc_hd__nor4b_1
*I *1771:A I *D sky130_fd_sc_hd__nor4b_1
*I *1769:A I *D sky130_fd_sc_hd__nor4b_1
*I *1768:A I *D sky130_fd_sc_hd__nor4b_1
*I *1767:A I *D sky130_fd_sc_hd__nor4b_1
*I *1765:A I *D sky130_fd_sc_hd__nor4b_1
*I *1766:A I *D sky130_fd_sc_hd__nor4b_1
*I *1791:A I *D sky130_fd_sc_hd__nor4b_1
*I *1998:X O *D sky130_fd_sc_hd__buf_4
*CAP
1 *1790:A 6.96739e-05
2 *1789:A 0.000120904
3 *1788:A 4.96373e-05
4 *1777:A 6.24738e-05
5 *1775:A 0
6 *1774:A 0.000137045
7 *1772:A 0
8 *1773:A 0.000149605
9 *1770:A 0
10 *1771:A 0.000448887
11 *1769:A 0
12 *1768:A 0.000193416
13 *1767:A 0
14 *1765:A 0.0003641
15 *1766:A 5.48714e-05
16 *1791:A 0.00010379
17 *1998:X 7.67029e-05
18 *412:67 0.000648037
19 *412:65 0.000349863
20 *412:63 0.000419467
21 *412:61 0.000370649
22 *412:59 0.001053
23 *412:57 0.000573338
24 *412:55 0.000202069
25 *412:53 0.000388442
26 *412:47 0.000378876
27 *412:39 0.0015063
28 *412:27 0.00133694
29 *412:25 0.000273923
30 *412:23 0.000287666
31 *412:6 0.000333472
32 *1791:A *453:DIODE 0.000152868
33 *412:23 *416:76 0
34 *412:25 *416:76 0
35 *412:27 *416:76 0
36 *412:27 *416:82 0
37 *412:39 *413:21 0.000188304
38 *412:39 *413:23 0.00018442
39 *412:39 *413:25 0.000162832
40 *412:39 *413:27 0.000188741
41 *412:39 *413:29 0.000148911
42 *412:39 *416:82 0
43 *412:39 *416:112 0.000980342
44 *412:39 *416:126 0.000104974
45 *412:47 *416:126 0.000193984
46 *1766:B *1765:A 1.78252e-05
47 *1766:C *1766:A 2.61337e-05
48 *1766:C *412:67 7.15591e-05
49 *1768:C *1768:A 3.41779e-05
50 *1770:D_N *1771:A 1.58163e-05
51 *1772:D_N *1771:A 4.23821e-05
52 *1772:D_N *412:57 0.000168698
53 *1772:D_N *412:59 0.000379689
54 *1773:C *1773:A 4.58194e-05
55 *1775:D_N *412:47 0.000227911
56 *1776:D_N *1774:A 1.90936e-05
57 *1777:D_N *1777:A 1.24368e-05
58 *1782:B *412:39 0.000136958
59 *1788:B *1788:A 2.23592e-05
60 *1788:D_N *1788:A 1.24368e-05
61 *1789:B *1789:A 2.89114e-05
62 *1790:B *1790:A 2.23592e-05
63 *1790:D_N *1790:A 1.24368e-05
64 *1791:B *1791:A 5.11382e-05
65 *1880:D *1765:A 0.000316351
66 *1883:D *1768:A 1.92789e-05
67 *1887:CLK *412:59 0
68 *1889:D *1773:A 2.59355e-05
69 *1891:D *412:53 5.33005e-05
70 *1904:CLK *1788:A 0
71 *1905:D *1789:A 6.05161e-06
72 *1906:CLK *412:23 0
73 *1907:D *1791:A 1.33343e-05
74 *1907:D *412:6 0.000187041
75 *1907:D *412:23 0
76 *1952:A *1774:A 5.97884e-05
77 *1953:A *412:55 1.81709e-05
78 *1976:A *1771:A 4.5138e-05
79 *237:16 *412:23 0.000187019
80 *237:16 *412:25 0.00011891
81 *237:16 *412:27 0.000167691
82 *237:16 *412:39 0.00111243
83 *362:8 *412:53 9.41642e-05
84 *367:36 *1774:A 0
85 *386:144 *412:47 5.49489e-05
86 *386:144 *412:53 3.0097e-05
87 *386:148 *1777:A 4.902e-05
88 *386:170 *1777:A 1.98839e-05
89 *386:170 *412:39 0.000199428
90 *386:170 *412:47 7.97314e-05
91 *390:14 *412:59 0
92 *390:14 *412:61 0
93 *390:149 *1771:A 2.05629e-05
94 *390:149 *412:47 6.02043e-05
95 *396:40 *412:67 0.000103285
96 *396:55 *412:65 9.9784e-05
97 *396:55 *412:67 5.80706e-06
98 *396:68 *412:61 3.48235e-05
99 *396:68 *412:63 8.66324e-05
100 *396:68 *412:65 5.80706e-06
101 *396:83 *412:61 0.000153153
102 *396:123 *412:59 8.92157e-05
103 *396:123 *412:61 2.77209e-05
104 *396:133 *1773:A 6.05161e-06
105 *396:141 *1774:A 4.49293e-05
106 *396:141 *412:53 1.98839e-05
107 *396:141 *412:55 0.000148911
108 *396:158 *412:53 8.43535e-06
109 *400:162 *412:39 0.000841476
*RES
1 *1998:X *412:6 11.0679 
2 *412:6 *1791:A 11.925 
3 *412:6 *412:23 7.48214 
4 *412:23 *412:25 1.64286 
5 *412:25 *412:27 2.25 
6 *412:27 *412:39 42.4464 
7 *412:39 *412:47 10.375 
8 *412:47 *412:53 7.10714 
9 *412:53 *412:55 2.55357 
10 *412:55 *412:57 2.25 
11 *412:57 *412:59 7.41071 
12 *412:59 *412:61 5.28571 
13 *412:61 *412:63 2.25 
14 *412:63 *412:65 2.55357 
15 *412:65 *412:67 4.375 
16 *412:67 *1766:A 14.5321 
17 *412:67 *1765:A 18.7643 
18 *412:65 *1767:A 13.8 
19 *412:63 *1768:A 16.8357 
20 *412:61 *1769:A 13.8 
21 *412:59 *1771:A 22.5567 
22 *412:59 *1770:A 13.8 
23 *412:57 *1773:A 15.9786 
24 *412:55 *1772:A 13.8 
25 *412:53 *1774:A 16.3536 
26 *412:47 *1775:A 9.3 
27 *412:39 *1777:A 15.1929 
28 *412:27 *1788:A 14.7643 
29 *412:25 *1789:A 15.5679 
30 *412:23 *1790:A 15.1929 
*END

*D_NET *413 0.00718349
*CONN
*I *1786:A I *D sky130_fd_sc_hd__nor4b_1
*I *1785:A I *D sky130_fd_sc_hd__nor4b_1
*I *1784:A I *D sky130_fd_sc_hd__nor4b_1
*I *1783:A I *D sky130_fd_sc_hd__nor4b_1
*I *1782:A I *D sky130_fd_sc_hd__nor4b_1
*I *1781:A I *D sky130_fd_sc_hd__nor4b_1
*I *1778:A I *D sky130_fd_sc_hd__nor4b_1
*I *1780:A I *D sky130_fd_sc_hd__nor4b_1
*I *1776:A I *D sky130_fd_sc_hd__nor4b_1
*I *1779:A I *D sky130_fd_sc_hd__nor4b_1
*I *1787:A I *D sky130_fd_sc_hd__nor4b_1
*I *1999:X O *D sky130_fd_sc_hd__buf_2
*CAP
1 *1786:A 0
2 *1785:A 0.000185993
3 *1784:A 0
4 *1783:A 0.000164845
5 *1782:A 0
6 *1781:A 0.000155694
7 *1778:A 0
8 *1780:A 0.000218319
9 *1776:A 0.000108402
10 *1779:A 7.0167e-05
11 *1787:A 0.000151065
12 *1999:X 7.54957e-05
13 *413:67 0.000218319
14 *413:41 0.000373066
15 *413:33 0.000338976
16 *413:31 0.00041496
17 *413:29 0.000233864
18 *413:27 0.000404443
19 *413:25 0.000223375
20 *413:23 0.000407134
21 *413:21 0.000206672
22 *413:8 0.000314946
23 *413:8 *416:112 2.84109e-05
24 *413:21 *416:112 0.000194835
25 *413:23 *416:112 2.06178e-05
26 *1776:B *1776:A 0.000291971
27 *1776:C *413:41 1.62621e-05
28 *1778:B *1780:A 0.000167436
29 *1778:D_N *1780:A 0.000180777
30 *1779:C *413:41 1.3701e-05
31 *1779:D_N *1776:A 8.29398e-06
32 *1779:D_N *1779:A 1.02132e-05
33 *1780:C *1779:A 1.56e-05
34 *1780:C *413:41 5.30637e-06
35 *1782:D_N *413:31 0.000162211
36 *1895:D *413:41 5.68713e-05
37 *1896:D *1780:A 4.13496e-05
38 *1897:D *1781:A 2.89016e-05
39 *1899:D *1783:A 2.59355e-05
40 *1901:D *1785:A 5.33005e-05
41 *1903:D *1787:A 2.59355e-05
42 *1903:D *413:8 8.43535e-06
43 *1983:A *1776:A 4.25652e-05
44 *237:16 *1776:A 0.000150625
45 *237:16 *413:29 1.81709e-05
46 *237:16 *413:31 1.48478e-05
47 *237:16 *413:33 9.48086e-05
48 *237:16 *413:41 8.5896e-05
49 *366:58 *413:23 0
50 *367:77 *413:33 0
51 *367:88 *413:31 0
52 *387:10 *1779:A 3.61487e-05
53 *387:47 *1780:A 0.000195396
54 *397:6 *413:41 4.60309e-05
55 *400:162 *1776:A 3.69047e-06
56 *412:39 *413:21 0.000188304
57 *412:39 *413:23 0.00018442
58 *412:39 *413:25 0.000162832
59 *412:39 *413:27 0.000188741
60 *412:39 *413:29 0.000148911
*RES
1 *1999:X *413:8 10.675 
2 *413:8 *1787:A 11.4786 
3 *413:8 *413:21 7.48214 
4 *413:21 *413:23 2.55357 
5 *413:23 *413:25 2.25 
6 *413:25 *413:27 2.55357 
7 *413:27 *413:29 2.55357 
8 *413:29 *413:31 2.55357 
9 *413:31 *413:33 2.55357 
10 *413:33 *413:41 8.83929 
11 *413:41 *1779:A 10.675 
12 *413:41 *1776:A 22.0321 
13 *413:33 *413:67 4.5 
14 *413:67 *1780:A 14.8179 
15 *413:67 *1778:A 9.3 
16 *413:31 *1781:A 15.9786 
17 *413:29 *1782:A 13.8 
18 *413:27 *1783:A 15.9786 
19 *413:25 *1784:A 13.8 
20 *413:23 *1785:A 16.5321 
21 *413:21 *1786:A 13.8 
*END

*D_NET *414 0.0184225
*CONN
*I *1799:A I *D sky130_fd_sc_hd__nor4b_1
*I *1800:A I *D sky130_fd_sc_hd__nor4b_1
*I *1802:A I *D sky130_fd_sc_hd__nor4b_1
*I *1803:A I *D sky130_fd_sc_hd__nor4b_1
*I *1804:A I *D sky130_fd_sc_hd__nor4b_1
*I *1818:A I *D sky130_fd_sc_hd__nor4b_1
*I *1820:A I *D sky130_fd_sc_hd__nor4b_1
*I *1819:A I *D sky130_fd_sc_hd__nor4b_1
*I *1801:A I *D sky130_fd_sc_hd__nor4b_1
*I *1797:A I *D sky130_fd_sc_hd__nor4b_1
*I *1796:A I *D sky130_fd_sc_hd__nor4b_1
*I *1795:A I *D sky130_fd_sc_hd__nor4b_1
*I *1794:A I *D sky130_fd_sc_hd__nor4b_1
*I *1793:A I *D sky130_fd_sc_hd__nor4b_1
*I *1792:A I *D sky130_fd_sc_hd__nor4b_1
*I *1798:A I *D sky130_fd_sc_hd__nor4b_1
*I *2000:X O *D sky130_fd_sc_hd__buf_4
*CAP
1 *1799:A 4.47653e-05
2 *1800:A 7.56954e-05
3 *1802:A 0
4 *1803:A 7.62534e-05
5 *1804:A 0.000260444
6 *1818:A 0
7 *1820:A 0.00016053
8 *1819:A 0.000307651
9 *1801:A 8.83463e-05
10 *1797:A 0
11 *1796:A 0
12 *1795:A 0.000131002
13 *1794:A 0
14 *1793:A 0.000175263
15 *1792:A 0.000130412
16 *1798:A 0
17 *2000:X 0
18 *414:165 0.000602428
19 *414:144 0.00221202
20 *414:126 0.00181412
21 *414:122 0.000466683
22 *414:110 0.000446273
23 *414:93 0.000422989
24 *414:87 0.00040669
25 *414:79 0.000220049
26 *414:27 0.000412139
27 *414:25 0.000224637
28 *414:23 0.000379335
29 *414:21 0.000368613
30 *414:17 0.000396659
31 *414:10 0.000315308
32 *414:4 0.000188978
33 *1799:A *416:10 1.21258e-05
34 *1799:A *416:14 2.59355e-05
35 *414:79 *2000:A 6.05161e-06
36 *414:79 *416:14 6.7224e-05
37 *414:87 *455:DIODE 6.78931e-05
38 *414:87 *416:10 5.54655e-05
39 *414:87 *416:39 4.32307e-05
40 *414:144 *415:43 0
41 *414:144 *415:52 0
42 *414:144 *415:61 0
43 *414:144 *415:107 0
44 *414:144 *415:126 0.000127439
45 *414:165 *415:126 0.000221307
46 *414:165 *415:134 0
47 *432:DIODE *414:144 1.00332e-05
48 *1792:C *1792:A 2.21639e-05
49 *1792:D_N *1792:A 1.02504e-05
50 *1795:C *1795:A 4.87953e-05
51 *1797:D_N *414:21 0.000212522
52 *1798:B *414:17 4.35482e-05
53 *1798:C *414:17 0.000182592
54 *1799:D_N *1799:A 4.17433e-05
55 *1799:D_N *414:79 0.000141734
56 *1800:B *1800:A 5.33005e-05
57 *1800:B *414:93 1.21436e-05
58 *1800:D_N *1800:A 0.000126566
59 *1800:D_N *414:87 0.000139491
60 *1801:B *1801:A 5.33005e-05
61 *1801:D_N *1801:A 0.000137983
62 *1802:B *414:110 1.27266e-05
63 *1802:B *414:122 1.30765e-05
64 *1802:D_N *414:122 1.32056e-05
65 *1803:C *1803:A 1.98839e-05
66 *1803:D_N *1803:A 1.24368e-05
67 *1803:D_N *414:122 0.000103977
68 *1804:B *1804:A 4.87854e-05
69 *1805:C *414:144 7.81927e-05
70 *1807:B *414:144 0.000135028
71 *1807:D_N *414:144 0.000110772
72 *1814:D_N *414:144 6.60244e-05
73 *1818:D_N *414:165 0.000271553
74 *1819:B *1819:A 7.81136e-05
75 *1819:C *1819:A 8.48038e-05
76 *1820:B *1820:A 0.000310967
77 *1820:B *414:165 0
78 *1820:D_N *1820:A 0.000183726
79 *1821:A *414:144 0
80 *1909:D *1793:A 5.52238e-05
81 *1911:D *1795:A 2.89016e-05
82 *1914:D *414:17 0.000265179
83 *1920:CLK *1803:A 0
84 *1921:D *1804:A 5.33005e-05
85 *1936:CLK *1819:A 0
86 *1949:A *414:144 0
87 *1984:A *1792:A 0.000123359
88 *137:17 *414:165 0
89 *237:16 *1792:A 0.000121456
90 *237:16 *1820:A 1.50179e-05
91 *237:16 *414:21 8.55537e-05
92 *237:16 *414:23 9.88232e-05
93 *237:16 *414:25 0.000100735
94 *237:16 *414:27 7.15687e-05
95 *237:16 *414:93 0.000178101
96 *237:16 *414:110 6.5185e-05
97 *237:16 *414:126 0.000232402
98 *237:16 *414:144 0.000522508
99 *363:16 *414:93 0.000218446
100 *363:16 *414:110 0.000115696
101 *363:16 *414:122 7.6997e-05
102 *369:14 *414:21 0
103 *388:8 *1793:A 2.85185e-05
104 *388:81 *414:17 6.57032e-05
105 *388:89 *414:21 9.11048e-06
106 *388:134 *1804:A 0
107 *388:155 *414:126 4.8365e-05
108 *388:168 *1804:A 5.61309e-05
109 *388:168 *414:126 6.70972e-05
110 *388:168 *414:144 5.41797e-06
111 *388:193 *1804:A 3.41517e-06
112 *388:218 *1819:A 9.41642e-05
113 *389:107 *414:144 0
114 *389:120 *414:144 0
115 *390:195 *414:10 0
116 *390:195 *414:87 0
117 *398:10 *1793:A 2.95726e-05
118 *398:101 *1800:A 1.98839e-05
119 *398:168 *1804:A 1.39841e-05
120 *398:168 *414:144 0.000959038
121 *398:191 *414:144 5.83304e-05
122 *398:191 *414:165 0.000546174
123 *399:23 *414:144 7.83587e-05
124 *399:74 *414:144 0
125 *399:92 *414:144 8.58222e-05
126 *400:196 *414:87 8.24778e-05
127 *400:196 *414:93 9.11048e-06
*RES
1 *2000:X *414:4 9.3 
2 *414:4 *414:10 11.5536 
3 *414:10 *1798:A 9.3 
4 *414:10 *414:17 4.23214 
5 *414:17 *414:21 9.48214 
6 *414:21 *414:23 2.55357 
7 *414:23 *414:25 2.55357 
8 *414:25 *414:27 1.94643 
9 *414:27 *1792:A 16.9607 
10 *414:27 *1793:A 16.8357 
11 *414:25 *1794:A 13.8 
12 *414:23 *1795:A 15.9786 
13 *414:21 *1796:A 13.8 
14 *414:17 *1797:A 9.3 
15 *414:4 *414:79 1.35714 
16 *414:79 *414:87 12.9107 
17 *414:87 *414:93 9.60714 
18 *414:93 *1801:A 15.5679 
19 *414:93 *414:110 7.71429 
20 *414:110 *414:122 13.4821 
21 *414:122 *414:126 7.50893 
22 *414:126 *414:144 41.2589 
23 *414:144 *1819:A 20.1125 
24 *414:144 *414:165 15.2143 
25 *414:165 *1820:A 22.7286 
26 *414:165 *1818:A 9.3 
27 *414:126 *1804:A 17.8268 
28 *414:122 *1803:A 10.6929 
29 *414:110 *1802:A 9.3 
30 *414:87 *1800:A 11.0679 
31 *414:79 *1799:A 10.2464 
*END

*D_NET *415 0.0100522
*CONN
*I *1815:A I *D sky130_fd_sc_hd__nor4b_1
*I *1816:A I *D sky130_fd_sc_hd__nor4b_1
*I *1817:A I *D sky130_fd_sc_hd__nor4b_1
*I *1814:A I *D sky130_fd_sc_hd__nor4b_1
*I *1811:A I *D sky130_fd_sc_hd__nor4b_1
*I *1809:A I *D sky130_fd_sc_hd__nor4b_1
*I *1813:A I *D sky130_fd_sc_hd__nor4b_1
*I *1812:A I *D sky130_fd_sc_hd__nor4b_1
*I *1810:A I *D sky130_fd_sc_hd__nor4b_1
*I *1808:A I *D sky130_fd_sc_hd__nor4b_1
*I *1807:A I *D sky130_fd_sc_hd__nor4b_1
*I *1806:A I *D sky130_fd_sc_hd__nor4b_1
*I *1805:A I *D sky130_fd_sc_hd__nor4b_1
*I *2001:X O *D sky130_fd_sc_hd__clkbuf_4
*CAP
1 *1815:A 4.03284e-05
2 *1816:A 9.56014e-05
3 *1817:A 6.80572e-05
4 *1814:A 0
5 *1811:A 4.92196e-05
6 *1809:A 0.000153684
7 *1813:A 0.000213564
8 *1812:A 0
9 *1810:A 0
10 *1808:A 0
11 *1807:A 6.28652e-05
12 *1806:A 0
13 *1805:A 0.00029458
14 *2001:X 4.36033e-05
15 *415:134 0.000326744
16 *415:126 0.000653928
17 *415:107 0.000570178
18 *415:85 0.000374703
19 *415:72 0.000385363
20 *415:70 0.000167266
21 *415:61 0.000221513
22 *415:52 0.000373148
23 *415:43 0.000279983
24 *415:12 0.000406336
25 *415:10 0.000206823
26 *415:8 0.000156551
27 *1807:A *456:DIODE 0.000219711
28 *415:8 *456:DIODE 5.33005e-05
29 *1805:B *1805:A 0.000162485
30 *1805:B *415:12 5.71124e-05
31 *1805:D_N *1805:A 0.000213277
32 *1807:B *1807:A 2.14658e-05
33 *1807:D_N *1807:A 0.000177821
34 *1811:B *415:85 0.000175892
35 *1811:D_N *1809:A 0.000300787
36 *1811:D_N *1811:A 4.66511e-05
37 *1813:B *1813:A 9.56266e-05
38 *1813:B *415:85 1.98839e-05
39 *1814:D_N *415:126 0.000141734
40 *1815:D_N *1815:A 4.33899e-05
41 *1815:D_N *415:126 0.000185124
42 *1816:C *1816:A 0.00013234
43 *1817:B *1817:A 1.59373e-05
44 *1817:C *1816:A 4.08637e-05
45 *1817:C *1817:A 5.49489e-05
46 *1821:A *415:126 1.32056e-05
47 *1930:D *415:107 5.40438e-05
48 *1934:D *1816:A 0.000266826
49 *137:17 *415:126 0
50 *137:17 *415:134 3.30664e-05
51 *237:16 *1809:A 5.58875e-06
52 *237:16 *1811:A 1.41029e-05
53 *388:193 *415:126 2.36643e-05
54 *388:218 *415:126 0
55 *389:28 *415:12 9.00185e-05
56 *389:41 *415:10 5.33614e-05
57 *389:41 *415:12 4.48383e-05
58 *389:41 *415:43 0.000149272
59 *389:41 *415:52 9.54798e-06
60 *389:50 *415:52 0.000376727
61 *389:50 *415:61 1.00332e-05
62 *389:59 *415:61 0.000184727
63 *389:74 *415:61 0.000186415
64 *389:74 *415:70 1.00332e-05
65 *389:83 *415:70 0.000115696
66 *389:83 *415:107 7.91077e-05
67 *389:107 *415:107 0.000161464
68 *399:74 *415:61 0.000123946
69 *399:82 *1809:A 7.951e-05
70 *399:92 *415:61 2.6304e-05
71 *399:92 *415:70 5.70695e-05
72 *399:92 *415:107 2.97869e-05
73 *399:141 *1815:A 5.49489e-05
74 *399:141 *415:134 0.000147718
75 *414:144 *415:43 0
76 *414:144 *415:52 0
77 *414:144 *415:61 0
78 *414:144 *415:107 0
79 *414:144 *415:126 0.000127439
80 *414:165 *415:126 0.000221307
81 *414:165 *415:134 0
*RES
1 *2001:X *415:8 14.3357 
2 *415:8 *415:10 0.732143 
3 *415:10 *415:12 2.55357 
4 *415:12 *1805:A 18.6571 
5 *415:12 *1806:A 13.8 
6 *415:10 *1807:A 15.9786 
7 *415:8 *415:43 1.94643 
8 *415:43 *1808:A 13.8 
9 *415:43 *415:52 4.98214 
10 *415:52 *1810:A 13.8 
11 *415:52 *415:61 4.98214 
12 *415:61 *1812:A 13.8 
13 *415:61 *415:70 1.64286 
14 *415:70 *415:72 4.5 
15 *415:72 *1813:A 12.2107 
16 *415:72 *415:85 6.67857 
17 *415:85 *1809:A 17.8714 
18 *415:85 *1811:A 14.8357 
19 *415:70 *415:107 7.66071 
20 *415:107 *1814:A 9.3 
21 *415:107 *415:126 18.8929 
22 *415:126 *415:134 12.2857 
23 *415:134 *1817:A 10.6571 
24 *415:134 *1816:A 12.3 
25 *415:126 *1815:A 10.2464 
*END

*D_NET *416 0.0421739
*CONN
*I *453:DIODE I *D sky130_fd_sc_hd__diode_2
*I *1998:A I *D sky130_fd_sc_hd__buf_4
*I *454:DIODE I *D sky130_fd_sc_hd__diode_2
*I *1999:A I *D sky130_fd_sc_hd__buf_2
*I *1989:A I *D sky130_fd_sc_hd__buf_4
*I *451:DIODE I *D sky130_fd_sc_hd__diode_2
*I *452:DIODE I *D sky130_fd_sc_hd__diode_2
*I *1967:A I *D sky130_fd_sc_hd__buf_4
*I *434:DIODE I *D sky130_fd_sc_hd__diode_2
*I *1978:A I *D sky130_fd_sc_hd__clkbuf_4
*I *444:DIODE I *D sky130_fd_sc_hd__diode_2
*I *1997:A I *D sky130_fd_sc_hd__clkbuf_4
*I *455:DIODE I *D sky130_fd_sc_hd__diode_2
*I *456:DIODE I *D sky130_fd_sc_hd__diode_2
*I *2001:A I *D sky130_fd_sc_hd__clkbuf_4
*I *2000:A I *D sky130_fd_sc_hd__buf_4
*I *2002:X O *D sky130_fd_sc_hd__clkbuf_4
*CAP
1 *453:DIODE 0.000353333
2 *1998:A 0
3 *454:DIODE 0
4 *1999:A 0
5 *1989:A 0.00024897
6 *451:DIODE 0
7 *452:DIODE 0.000133244
8 *1967:A 0
9 *434:DIODE 0
10 *1978:A 6.27155e-05
11 *444:DIODE 7.72403e-05
12 *1997:A 7.12533e-05
13 *455:DIODE 2.96991e-05
14 *456:DIODE 0.000292147
15 *2001:A 0
16 *2000:A 0.000152146
17 *2002:X 0
18 *416:240 0.000360091
19 *416:173 0.000507902
20 *416:165 0.000415657
21 *416:163 0.00536737
22 *416:132 0.00550538
23 *416:130 0.00036204
24 *416:128 0.000283165
25 *416:126 0.00227751
26 *416:112 0.00378395
27 *416:82 0.00215659
28 *416:76 0.000505868
29 *416:74 0.000816094
30 *416:39 0.00155073
31 *416:14 0.00155113
32 *416:10 0.000600207
33 *416:4 0.000965902
34 *1735:D_N *444:DIODE 9.76224e-06
35 *1735:D_N *1978:A 3.50166e-05
36 *1735:D_N *416:173 3.48218e-05
37 *1736:C *416:165 0.00027068
38 *1736:D_N *416:165 9.22015e-05
39 *1737:B *416:163 0.00023958
40 *1737:C *416:163 5.41794e-05
41 *1739:D_N *416:163 5.64774e-06
42 *1748:D_N *416:163 0.000119924
43 *1759:D_N *416:163 0
44 *1760:D_N *1997:A 5.33005e-05
45 *1761:D_N *452:DIODE 6.61256e-05
46 *1763:D_N *1989:A 3.41649e-05
47 *1774:D_N *416:126 0
48 *1778:D_N *416:112 0
49 *1791:A *453:DIODE 0.000152868
50 *1791:D_N *453:DIODE 5.45307e-05
51 *1799:A *416:10 1.21258e-05
52 *1799:A *416:14 2.59355e-05
53 *1799:B *416:10 6.42095e-05
54 *1799:D_N *2000:A 5.67021e-05
55 *1799:D_N *416:10 6.05161e-06
56 *1804:D_N *416:39 5.10269e-05
57 *1807:A *456:DIODE 0.000219711
58 *1807:B *456:DIODE 1.46231e-05
59 *1807:C *456:DIODE 1.03906e-05
60 *1807:D_N *456:DIODE 3.88131e-05
61 *1807:D_N *416:39 0.000197181
62 *1903:D *416:82 8.70565e-05
63 *1903:D *416:112 0.000141734
64 *1904:CLK *416:82 0.000248493
65 *1905:CLK *416:76 3.07555e-05
66 *1905:CLK *416:82 4.8936e-05
67 *1906:CLK *416:74 0.000135683
68 *1906:CLK *416:76 0.000161022
69 *1906:CLK *416:240 1.10627e-05
70 *1907:CLK *416:74 0.000509472
71 *1907:D *453:DIODE 0.000169564
72 *1915:CLK *416:74 2.59355e-05
73 *1915:D *416:10 4.64978e-05
74 *1915:D *416:74 1.46148e-05
75 *1966:A *416:126 0
76 *2002:A *416:10 0.000139485
77 *237:14 *416:126 0
78 *237:16 *416:112 0
79 *363:16 *416:39 0
80 *366:58 *416:112 0
81 *368:10 *416:74 0.000187026
82 *368:12 *416:74 0.00014279
83 *368:14 *416:74 0.000622283
84 *369:14 *416:74 0.000579309
85 *369:16 *416:74 0.000153054
86 *369:18 *416:74 0.000385717
87 *369:20 *416:74 0.000247778
88 *370:14 *456:DIODE 2.00123e-05
89 *370:16 *456:DIODE 1.00477e-05
90 *381:6 *416:165 0.000100685
91 *384:34 *1997:A 0
92 *384:34 *416:130 0
93 *384:34 *416:132 0
94 *384:66 *416:163 0
95 *385:25 *416:163 0.00012384
96 *386:25 *416:126 0
97 *386:29 *416:126 0
98 *386:33 *416:126 0
99 *386:43 *416:126 0.000346156
100 *386:107 *416:126 0
101 *386:144 *416:126 0
102 *386:170 *416:112 0
103 *387:38 *416:112 0.000124869
104 *390:149 *416:126 0.000698229
105 *390:195 *416:39 0.000468845
106 *391:10 *416:173 0.000147725
107 *392:14 *416:173 0.000180741
108 *394:29 *416:163 0.000116481
109 *394:157 *416:130 2.26327e-05
110 *394:163 *416:128 4.48206e-05
111 *394:163 *416:130 2.19778e-05
112 *396:133 *416:126 0.000136064
113 *398:168 *416:39 0.000252542
114 *399:36 *456:DIODE 3.006e-05
115 *400:26 *416:163 0
116 *400:82 *416:163 0.000158408
117 *400:116 *416:163 0.00192498
118 *400:162 *416:112 0.000213134
119 *400:196 *455:DIODE 7.70035e-05
120 *400:196 *416:10 0.000123187
121 *400:196 *416:39 0
122 *403:6 *1989:A 0.000186387
123 *403:21 *416:128 0
124 *403:33 *1997:A 6.83482e-05
125 *403:33 *416:130 9.30093e-05
126 *403:33 *416:132 0.000229218
127 *412:23 *416:76 0
128 *412:25 *416:76 0
129 *412:27 *416:76 0
130 *412:27 *416:82 0
131 *412:39 *416:82 0
132 *412:39 *416:112 0.000980342
133 *412:39 *416:126 0.000104974
134 *412:47 *416:126 0.000193984
135 *413:8 *416:112 2.84109e-05
136 *413:21 *416:112 0.000194835
137 *413:23 *416:112 2.06178e-05
138 *414:79 *2000:A 6.05161e-06
139 *414:79 *416:14 6.7224e-05
140 *414:87 *455:DIODE 6.78931e-05
141 *414:87 *416:10 5.54655e-05
142 *414:87 *416:39 4.32307e-05
143 *415:8 *456:DIODE 5.33005e-05
*RES
1 *2002:X *416:4 9.3 
2 *416:4 *416:10 10.7857 
3 *416:10 *416:14 6.26786 
4 *416:14 *2000:A 11.6929 
5 *416:14 *416:39 35 
6 *416:39 *2001:A 9.3 
7 *416:39 *456:DIODE 23.8714 
8 *416:10 *455:DIODE 14.8357 
9 *416:4 *416:74 25.0804 
10 *416:74 *416:76 5.4375 
11 *416:76 *416:82 9.82143 
12 *416:82 *416:112 44.4419 
13 *416:112 *416:126 37.3214 
14 *416:126 *416:128 2.55357 
15 *416:128 *416:130 2.55357 
16 *416:130 *416:132 3.00893 
17 *416:132 *1997:A 15.2196 
18 *416:132 *416:163 34.4724 
19 *416:163 *416:165 2.58929 
20 *416:165 *416:173 14.7679 
21 *416:173 *444:DIODE 10.2464 
22 *416:173 *1978:A 10.6393 
23 *416:165 *434:DIODE 9.3 
24 *416:163 *1967:A 9.3 
25 *416:130 *452:DIODE 15.5679 
26 *416:128 *451:DIODE 13.8 
27 *416:126 *1989:A 17.5321 
28 *416:82 *1999:A 9.3 
29 *416:76 *454:DIODE 13.8 
30 *416:74 *416:240 4.77679 
31 *416:240 *1998:A 9.3 
32 *416:240 *453:DIODE 15.9071 
*END
