*SPEF "ieee 1481-1999"
*DESIGN "bary_check_pipe_m"
*DATE "11:11:11 Fri 11 11, 1111"
*VENDOR "OpenRCX"
*PROGRAM "Parallel Extraction"
*VERSION "1.0"
*DESIGN_FLOW "NAME_SCOPE LOCAL" "PIN_CAP NONE"
*DIVIDER /
*DELIMITER :
*BUS_DELIMITER []
*T_UNIT 1 NS
*C_UNIT 1 PF
*R_UNIT 1 OHM
*L_UNIT 1 HENRY

*NAME_MAP
*1 busy_o
*2 clk_i
*3 mstream_i
*4 mstream_o[0]
*5 mstream_o[100]
*6 mstream_o[101]
*7 mstream_o[102]
*8 mstream_o[103]
*9 mstream_o[104]
*10 mstream_o[105]
*11 mstream_o[106]
*12 mstream_o[107]
*13 mstream_o[108]
*14 mstream_o[109]
*15 mstream_o[10]
*16 mstream_o[110]
*17 mstream_o[111]
*18 mstream_o[112]
*19 mstream_o[113]
*20 mstream_o[114]
*21 mstream_o[115]
*22 mstream_o[11]
*23 mstream_o[12]
*24 mstream_o[13]
*25 mstream_o[14]
*26 mstream_o[15]
*27 mstream_o[16]
*28 mstream_o[17]
*29 mstream_o[18]
*30 mstream_o[19]
*31 mstream_o[1]
*32 mstream_o[20]
*33 mstream_o[21]
*34 mstream_o[22]
*35 mstream_o[23]
*36 mstream_o[24]
*37 mstream_o[25]
*38 mstream_o[26]
*39 mstream_o[27]
*40 mstream_o[28]
*41 mstream_o[29]
*42 mstream_o[2]
*43 mstream_o[30]
*44 mstream_o[31]
*45 mstream_o[32]
*46 mstream_o[33]
*47 mstream_o[34]
*48 mstream_o[35]
*49 mstream_o[36]
*50 mstream_o[37]
*51 mstream_o[38]
*52 mstream_o[39]
*53 mstream_o[3]
*54 mstream_o[40]
*55 mstream_o[41]
*56 mstream_o[42]
*57 mstream_o[43]
*58 mstream_o[44]
*59 mstream_o[45]
*60 mstream_o[46]
*61 mstream_o[47]
*62 mstream_o[48]
*63 mstream_o[49]
*64 mstream_o[4]
*65 mstream_o[50]
*66 mstream_o[51]
*67 mstream_o[52]
*68 mstream_o[53]
*69 mstream_o[54]
*70 mstream_o[55]
*71 mstream_o[56]
*72 mstream_o[57]
*73 mstream_o[58]
*74 mstream_o[59]
*75 mstream_o[5]
*76 mstream_o[60]
*77 mstream_o[61]
*78 mstream_o[62]
*79 mstream_o[63]
*80 mstream_o[64]
*81 mstream_o[65]
*82 mstream_o[66]
*83 mstream_o[67]
*84 mstream_o[68]
*85 mstream_o[69]
*86 mstream_o[6]
*87 mstream_o[70]
*88 mstream_o[71]
*89 mstream_o[72]
*90 mstream_o[73]
*91 mstream_o[74]
*92 mstream_o[75]
*93 mstream_o[76]
*94 mstream_o[77]
*95 mstream_o[78]
*96 mstream_o[79]
*97 mstream_o[7]
*98 mstream_o[80]
*99 mstream_o[81]
*100 mstream_o[82]
*101 mstream_o[83]
*102 mstream_o[84]
*103 mstream_o[85]
*104 mstream_o[86]
*105 mstream_o[87]
*106 mstream_o[88]
*107 mstream_o[89]
*108 mstream_o[8]
*109 mstream_o[90]
*110 mstream_o[91]
*111 mstream_o[92]
*112 mstream_o[93]
*113 mstream_o[94]
*114 mstream_o[95]
*115 mstream_o[96]
*116 mstream_o[97]
*117 mstream_o[98]
*118 mstream_o[99]
*119 mstream_o[9]
*120 nrst_i
*121 sstream_i[0]
*122 sstream_i[100]
*123 sstream_i[101]
*124 sstream_i[102]
*125 sstream_i[103]
*126 sstream_i[104]
*127 sstream_i[105]
*128 sstream_i[106]
*129 sstream_i[107]
*130 sstream_i[108]
*131 sstream_i[109]
*132 sstream_i[10]
*133 sstream_i[110]
*134 sstream_i[111]
*135 sstream_i[112]
*136 sstream_i[113]
*137 sstream_i[114]
*138 sstream_i[115]
*139 sstream_i[11]
*140 sstream_i[12]
*141 sstream_i[13]
*142 sstream_i[14]
*143 sstream_i[15]
*144 sstream_i[16]
*145 sstream_i[17]
*146 sstream_i[18]
*147 sstream_i[19]
*148 sstream_i[1]
*149 sstream_i[20]
*150 sstream_i[21]
*151 sstream_i[22]
*152 sstream_i[23]
*153 sstream_i[24]
*154 sstream_i[25]
*155 sstream_i[26]
*156 sstream_i[27]
*157 sstream_i[28]
*158 sstream_i[29]
*159 sstream_i[2]
*160 sstream_i[30]
*161 sstream_i[31]
*162 sstream_i[32]
*163 sstream_i[33]
*164 sstream_i[34]
*165 sstream_i[35]
*166 sstream_i[36]
*167 sstream_i[37]
*168 sstream_i[38]
*169 sstream_i[39]
*170 sstream_i[3]
*171 sstream_i[40]
*172 sstream_i[41]
*173 sstream_i[42]
*174 sstream_i[43]
*175 sstream_i[44]
*176 sstream_i[45]
*177 sstream_i[46]
*178 sstream_i[47]
*179 sstream_i[48]
*180 sstream_i[49]
*181 sstream_i[4]
*182 sstream_i[50]
*183 sstream_i[51]
*184 sstream_i[52]
*185 sstream_i[53]
*186 sstream_i[54]
*187 sstream_i[55]
*188 sstream_i[56]
*189 sstream_i[57]
*190 sstream_i[58]
*191 sstream_i[59]
*192 sstream_i[5]
*193 sstream_i[60]
*194 sstream_i[61]
*195 sstream_i[62]
*196 sstream_i[63]
*197 sstream_i[64]
*198 sstream_i[65]
*199 sstream_i[66]
*200 sstream_i[67]
*201 sstream_i[68]
*202 sstream_i[69]
*203 sstream_i[6]
*204 sstream_i[70]
*205 sstream_i[71]
*206 sstream_i[72]
*207 sstream_i[73]
*208 sstream_i[74]
*209 sstream_i[75]
*210 sstream_i[76]
*211 sstream_i[77]
*212 sstream_i[78]
*213 sstream_i[79]
*214 sstream_i[7]
*215 sstream_i[80]
*216 sstream_i[81]
*217 sstream_i[82]
*218 sstream_i[83]
*219 sstream_i[84]
*220 sstream_i[85]
*221 sstream_i[86]
*222 sstream_i[87]
*223 sstream_i[88]
*224 sstream_i[89]
*225 sstream_i[8]
*226 sstream_i[90]
*227 sstream_i[91]
*228 sstream_i[92]
*229 sstream_i[93]
*230 sstream_i[94]
*231 sstream_i[95]
*232 sstream_i[96]
*233 sstream_i[97]
*234 sstream_i[98]
*235 sstream_i[99]
*236 sstream_i[9]
*237 sstream_o
*240 _000_
*241 _001_
*242 _002_
*243 _003_
*244 _004_
*245 _005_
*246 _006_
*247 _007_
*248 _008_
*249 _009_
*250 _010_
*251 _011_
*252 _012_
*253 _013_
*254 _014_
*255 _015_
*256 _016_
*257 _017_
*258 _018_
*259 _019_
*260 _020_
*261 _021_
*262 _022_
*263 _023_
*264 _024_
*265 _025_
*266 _026_
*267 _027_
*268 _028_
*269 _029_
*270 _030_
*271 _031_
*272 _032_
*273 _033_
*274 _034_
*275 _035_
*276 _036_
*277 _037_
*278 _038_
*279 _039_
*280 _040_
*281 _041_
*282 _042_
*283 _043_
*284 _044_
*285 _045_
*286 _046_
*287 _047_
*288 _048_
*289 _049_
*290 _050_
*291 _051_
*292 _052_
*293 _053_
*294 _054_
*295 _055_
*296 _056_
*297 _057_
*298 _058_
*299 _059_
*300 _060_
*301 _061_
*302 _062_
*303 _063_
*304 _064_
*305 _065_
*306 _066_
*307 _067_
*308 _068_
*309 _069_
*310 _070_
*311 _071_
*312 _072_
*313 _073_
*314 _074_
*315 _075_
*316 _076_
*317 _077_
*318 _078_
*319 _079_
*320 _080_
*321 _081_
*322 _082_
*323 _083_
*324 _084_
*325 _085_
*326 _086_
*327 _087_
*328 _088_
*329 _089_
*330 _090_
*331 _091_
*332 _092_
*333 _093_
*334 _094_
*335 _095_
*336 _096_
*337 _097_
*338 _098_
*339 _099_
*340 _100_
*341 _101_
*342 _102_
*343 _103_
*344 _104_
*345 _105_
*346 _106_
*347 _107_
*348 _108_
*349 _109_
*350 _110_
*351 _111_
*352 _112_
*353 _113_
*354 _114_
*355 _115_
*356 clknet_0_clk_i
*357 clknet_3_0_0_clk_i
*358 clknet_3_1_0_clk_i
*359 clknet_3_2_0_clk_i
*360 clknet_3_3_0_clk_i
*361 clknet_3_4_0_clk_i
*362 clknet_3_5_0_clk_i
*363 clknet_3_6_0_clk_i
*364 clknet_3_7_0_clk_i
*365 clknet_4_0__leaf_clk_i
*366 clknet_4_10__leaf_clk_i
*367 clknet_4_11__leaf_clk_i
*368 clknet_4_12__leaf_clk_i
*369 clknet_4_13__leaf_clk_i
*370 clknet_4_14__leaf_clk_i
*371 clknet_4_15__leaf_clk_i
*372 clknet_4_1__leaf_clk_i
*373 clknet_4_2__leaf_clk_i
*374 clknet_4_3__leaf_clk_i
*375 clknet_4_4__leaf_clk_i
*376 clknet_4_5__leaf_clk_i
*377 clknet_4_6__leaf_clk_i
*378 clknet_4_7__leaf_clk_i
*379 clknet_4_8__leaf_clk_i
*380 clknet_4_9__leaf_clk_i
*381 net1
*382 net10
*383 net11
*384 net12
*385 net13
*386 net14
*387 net15
*388 net16
*389 net17
*390 net18
*391 net19
*392 net2
*393 net20
*394 net21
*395 net22
*396 net23
*397 net24
*398 net25
*399 net26
*400 net27
*401 net28
*402 net29
*403 net3
*404 net30
*405 net31
*406 net32
*407 net33
*408 net34
*409 net35
*410 net36
*411 net4
*412 net5
*413 net6
*414 net7
*415 net8
*416 net9
*417 ANTENNA_clkbuf_3_0_0_clk_i_A
*418 ANTENNA_clkbuf_3_1_0_clk_i_A
*419 ANTENNA_clkbuf_3_2_0_clk_i_A
*420 ANTENNA_clkbuf_3_3_0_clk_i_A
*421 ANTENNA_clkbuf_3_4_0_clk_i_A
*422 ANTENNA_clkbuf_3_5_0_clk_i_A
*423 ANTENNA_clkbuf_3_6_0_clk_i_A
*424 ANTENNA_clkbuf_3_7_0_clk_i_A
*425 ANTENNA_fanout10_A
*426 ANTENNA_fanout11_A
*427 ANTENNA_fanout12_A
*428 ANTENNA_fanout13_A
*429 ANTENNA_fanout14_A
*430 ANTENNA_fanout15_A
*431 ANTENNA_fanout16_A
*432 ANTENNA_fanout17_A
*433 ANTENNA_fanout19_A
*434 ANTENNA_fanout1_A
*435 ANTENNA_fanout20_A
*436 ANTENNA_fanout21_A
*437 ANTENNA_fanout22_A
*438 ANTENNA_fanout23_A
*439 ANTENNA_fanout24_A
*440 ANTENNA_fanout25_A
*441 ANTENNA_fanout26_A
*442 ANTENNA_fanout28_A
*443 ANTENNA_fanout29_A
*444 ANTENNA_fanout2_A
*445 ANTENNA_fanout30_A
*446 ANTENNA_fanout31_A
*447 ANTENNA_fanout32_A
*448 ANTENNA_fanout33_A
*449 ANTENNA_fanout34_A
*450 ANTENNA_fanout35_A
*451 ANTENNA_fanout3_A
*452 ANTENNA_fanout4_A
*453 ANTENNA_fanout5_A
*454 ANTENNA_fanout6_A
*455 ANTENNA_fanout7_A
*456 ANTENNA_fanout8_A
*457 FILLER_0_0_15
*458 FILLER_0_0_27
*459 FILLER_0_0_29
*460 FILLER_0_0_3
*461 FILLER_0_0_41
*462 FILLER_0_0_53
*463 FILLER_0_0_57
*464 FILLER_0_0_69
*465 FILLER_0_100_15
*466 FILLER_0_100_29
*467 FILLER_0_100_3
*468 FILLER_0_100_35
*469 FILLER_0_100_59
*470 FILLER_0_100_71
*471 FILLER_0_100_79
*472 FILLER_0_101_15
*473 FILLER_0_101_23
*474 FILLER_0_101_3
*475 FILLER_0_101_57
*476 FILLER_0_101_69
*477 FILLER_0_102_15
*478 FILLER_0_102_27
*479 FILLER_0_102_29
*480 FILLER_0_102_3
*481 FILLER_0_102_60
*482 FILLER_0_102_72
*483 FILLER_0_102_80
*484 FILLER_0_103_15
*485 FILLER_0_103_23
*486 FILLER_0_103_3
*487 FILLER_0_103_57
*488 FILLER_0_103_69
*489 FILLER_0_104_3
*490 FILLER_0_104_35
*491 FILLER_0_104_59
*492 FILLER_0_104_71
*493 FILLER_0_104_79
*494 FILLER_0_105_15
*495 FILLER_0_105_23
*496 FILLER_0_105_3
*497 FILLER_0_105_57
*498 FILLER_0_105_69
*499 FILLER_0_106_3
*500 FILLER_0_106_49
*501 FILLER_0_106_55
*502 FILLER_0_106_59
*503 FILLER_0_106_7
*504 FILLER_0_106_71
*505 FILLER_0_106_79
*506 FILLER_0_107_15
*507 FILLER_0_107_23
*508 FILLER_0_107_3
*509 FILLER_0_107_57
*510 FILLER_0_108_15
*511 FILLER_0_108_29
*512 FILLER_0_108_3
*513 FILLER_0_108_35
*514 FILLER_0_108_59
*515 FILLER_0_108_71
*516 FILLER_0_108_79
*517 FILLER_0_109_15
*518 FILLER_0_109_23
*519 FILLER_0_109_3
*520 FILLER_0_109_57
*521 FILLER_0_109_69
*522 FILLER_0_10_15
*523 FILLER_0_10_27
*524 FILLER_0_10_29
*525 FILLER_0_10_3
*526 FILLER_0_10_41
*527 FILLER_0_10_53
*528 FILLER_0_10_65
*529 FILLER_0_10_77
*530 FILLER_0_110_15
*531 FILLER_0_110_29
*532 FILLER_0_110_3
*533 FILLER_0_110_33
*534 FILLER_0_110_59
*535 FILLER_0_110_71
*536 FILLER_0_110_79
*537 FILLER_0_111_11
*538 FILLER_0_111_23
*539 FILLER_0_111_3
*540 FILLER_0_111_63
*541 FILLER_0_111_67
*542 FILLER_0_111_79
*543 FILLER_0_112_11
*544 FILLER_0_112_3
*545 FILLER_0_112_35
*546 FILLER_0_112_70
*547 FILLER_0_112_74
*548 FILLER_0_112_80
*549 FILLER_0_113_15
*550 FILLER_0_113_3
*551 FILLER_0_113_57
*552 FILLER_0_113_69
*553 FILLER_0_114_15
*554 FILLER_0_114_29
*555 FILLER_0_114_3
*556 FILLER_0_114_33
*557 FILLER_0_114_60
*558 FILLER_0_114_72
*559 FILLER_0_114_80
*560 FILLER_0_115_11
*561 FILLER_0_115_3
*562 FILLER_0_115_77
*563 FILLER_0_116_15
*564 FILLER_0_116_29
*565 FILLER_0_116_3
*566 FILLER_0_116_60
*567 FILLER_0_116_72
*568 FILLER_0_116_80
*569 FILLER_0_117_15
*570 FILLER_0_117_23
*571 FILLER_0_117_3
*572 FILLER_0_117_57
*573 FILLER_0_117_69
*574 FILLER_0_118_15
*575 FILLER_0_118_29
*576 FILLER_0_118_3
*577 FILLER_0_118_60
*578 FILLER_0_118_72
*579 FILLER_0_118_80
*580 FILLER_0_119_15
*581 FILLER_0_119_23
*582 FILLER_0_119_3
*583 FILLER_0_119_57
*584 FILLER_0_119_69
*585 FILLER_0_11_15
*586 FILLER_0_11_23
*587 FILLER_0_11_3
*588 FILLER_0_11_63
*589 FILLER_0_11_75
*590 FILLER_0_120_15
*591 FILLER_0_120_29
*592 FILLER_0_120_3
*593 FILLER_0_120_35
*594 FILLER_0_120_66
*595 FILLER_0_120_78
*596 FILLER_0_121_15
*597 FILLER_0_121_21
*598 FILLER_0_121_29
*599 FILLER_0_121_3
*600 FILLER_0_121_57
*601 FILLER_0_121_69
*602 FILLER_0_122_15
*603 FILLER_0_122_29
*604 FILLER_0_122_3
*605 FILLER_0_122_35
*606 FILLER_0_122_59
*607 FILLER_0_122_71
*608 FILLER_0_122_79
*609 FILLER_0_123_15
*610 FILLER_0_123_23
*611 FILLER_0_123_3
*612 FILLER_0_123_57
*613 FILLER_0_123_69
*614 FILLER_0_124_15
*615 FILLER_0_124_29
*616 FILLER_0_124_3
*617 FILLER_0_124_33
*618 FILLER_0_124_80
*619 FILLER_0_125_15
*620 FILLER_0_125_23
*621 FILLER_0_125_3
*622 FILLER_0_125_57
*623 FILLER_0_125_69
*624 FILLER_0_126_15
*625 FILLER_0_126_27
*626 FILLER_0_126_29
*627 FILLER_0_126_3
*628 FILLER_0_126_41
*629 FILLER_0_126_53
*630 FILLER_0_126_65
*631 FILLER_0_126_77
*632 FILLER_0_127_15
*633 FILLER_0_127_27
*634 FILLER_0_127_3
*635 FILLER_0_127_39
*636 FILLER_0_127_51
*637 FILLER_0_127_55
*638 FILLER_0_127_57
*639 FILLER_0_127_69
*640 FILLER_0_128_15
*641 FILLER_0_128_27
*642 FILLER_0_128_29
*643 FILLER_0_128_3
*644 FILLER_0_128_41
*645 FILLER_0_128_53
*646 FILLER_0_128_65
*647 FILLER_0_128_77
*648 FILLER_0_129_15
*649 FILLER_0_129_27
*650 FILLER_0_129_3
*651 FILLER_0_129_39
*652 FILLER_0_129_51
*653 FILLER_0_129_55
*654 FILLER_0_129_57
*655 FILLER_0_129_69
*656 FILLER_0_12_15
*657 FILLER_0_12_23
*658 FILLER_0_12_27
*659 FILLER_0_12_29
*660 FILLER_0_12_3
*661 FILLER_0_12_69
*662 FILLER_0_12_73
*663 FILLER_0_130_15
*664 FILLER_0_130_27
*665 FILLER_0_130_29
*666 FILLER_0_130_3
*667 FILLER_0_130_41
*668 FILLER_0_130_53
*669 FILLER_0_130_65
*670 FILLER_0_130_77
*671 FILLER_0_131_15
*672 FILLER_0_131_27
*673 FILLER_0_131_3
*674 FILLER_0_131_39
*675 FILLER_0_131_51
*676 FILLER_0_131_55
*677 FILLER_0_131_57
*678 FILLER_0_131_69
*679 FILLER_0_132_15
*680 FILLER_0_132_27
*681 FILLER_0_132_29
*682 FILLER_0_132_3
*683 FILLER_0_132_41
*684 FILLER_0_132_53
*685 FILLER_0_132_65
*686 FILLER_0_132_77
*687 FILLER_0_133_15
*688 FILLER_0_133_27
*689 FILLER_0_133_3
*690 FILLER_0_133_39
*691 FILLER_0_133_51
*692 FILLER_0_133_55
*693 FILLER_0_133_57
*694 FILLER_0_133_69
*695 FILLER_0_134_15
*696 FILLER_0_134_27
*697 FILLER_0_134_29
*698 FILLER_0_134_3
*699 FILLER_0_134_41
*700 FILLER_0_134_53
*701 FILLER_0_134_65
*702 FILLER_0_134_77
*703 FILLER_0_135_15
*704 FILLER_0_135_27
*705 FILLER_0_135_3
*706 FILLER_0_135_39
*707 FILLER_0_135_51
*708 FILLER_0_135_55
*709 FILLER_0_135_57
*710 FILLER_0_135_69
*711 FILLER_0_136_15
*712 FILLER_0_136_27
*713 FILLER_0_136_29
*714 FILLER_0_136_3
*715 FILLER_0_136_41
*716 FILLER_0_136_53
*717 FILLER_0_136_65
*718 FILLER_0_136_77
*719 FILLER_0_137_15
*720 FILLER_0_137_27
*721 FILLER_0_137_3
*722 FILLER_0_137_39
*723 FILLER_0_137_51
*724 FILLER_0_137_55
*725 FILLER_0_137_57
*726 FILLER_0_137_69
*727 FILLER_0_138_15
*728 FILLER_0_138_27
*729 FILLER_0_138_29
*730 FILLER_0_138_3
*731 FILLER_0_138_41
*732 FILLER_0_138_53
*733 FILLER_0_138_57
*734 FILLER_0_138_69
*735 FILLER_0_13_15
*736 FILLER_0_13_23
*737 FILLER_0_13_3
*738 FILLER_0_13_57
*739 FILLER_0_13_69
*740 FILLER_0_14_29
*741 FILLER_0_14_3
*742 FILLER_0_14_35
*743 FILLER_0_14_59
*744 FILLER_0_14_7
*745 FILLER_0_14_71
*746 FILLER_0_14_79
*747 FILLER_0_15_11
*748 FILLER_0_15_3
*749 FILLER_0_15_57
*750 FILLER_0_15_69
*751 FILLER_0_16_15
*752 FILLER_0_16_23
*753 FILLER_0_16_27
*754 FILLER_0_16_29
*755 FILLER_0_16_3
*756 FILLER_0_16_60
*757 FILLER_0_16_72
*758 FILLER_0_16_80
*759 FILLER_0_17_15
*760 FILLER_0_17_23
*761 FILLER_0_17_3
*762 FILLER_0_17_57
*763 FILLER_0_17_69
*764 FILLER_0_18_15
*765 FILLER_0_18_29
*766 FILLER_0_18_3
*767 FILLER_0_18_35
*768 FILLER_0_18_59
*769 FILLER_0_18_71
*770 FILLER_0_18_79
*771 FILLER_0_19_15
*772 FILLER_0_19_23
*773 FILLER_0_19_3
*774 FILLER_0_19_57
*775 FILLER_0_19_69
*776 FILLER_0_1_15
*777 FILLER_0_1_27
*778 FILLER_0_1_3
*779 FILLER_0_1_39
*780 FILLER_0_1_51
*781 FILLER_0_1_55
*782 FILLER_0_1_57
*783 FILLER_0_1_69
*784 FILLER_0_20_15
*785 FILLER_0_20_29
*786 FILLER_0_20_3
*787 FILLER_0_20_58
*788 FILLER_0_20_70
*789 FILLER_0_20_78
*790 FILLER_0_21_15
*791 FILLER_0_21_23
*792 FILLER_0_21_3
*793 FILLER_0_21_57
*794 FILLER_0_21_69
*795 FILLER_0_22_15
*796 FILLER_0_22_27
*797 FILLER_0_22_29
*798 FILLER_0_22_3
*799 FILLER_0_22_60
*800 FILLER_0_22_72
*801 FILLER_0_22_80
*802 FILLER_0_23_15
*803 FILLER_0_23_23
*804 FILLER_0_23_3
*805 FILLER_0_23_57
*806 FILLER_0_23_69
*807 FILLER_0_24_29
*808 FILLER_0_24_3
*809 FILLER_0_24_7
*810 FILLER_0_24_71
*811 FILLER_0_24_75
*812 FILLER_0_25_11
*813 FILLER_0_25_3
*814 FILLER_0_25_68
*815 FILLER_0_25_72
*816 FILLER_0_25_80
*817 FILLER_0_26_15
*818 FILLER_0_26_29
*819 FILLER_0_26_3
*820 FILLER_0_26_66
*821 FILLER_0_26_70
*822 FILLER_0_26_78
*823 FILLER_0_27_15
*824 FILLER_0_27_23
*825 FILLER_0_27_3
*826 FILLER_0_27_57
*827 FILLER_0_27_69
*828 FILLER_0_28_15
*829 FILLER_0_28_27
*830 FILLER_0_28_29
*831 FILLER_0_28_3
*832 FILLER_0_28_35
*833 FILLER_0_28_59
*834 FILLER_0_28_71
*835 FILLER_0_28_79
*836 FILLER_0_29_15
*837 FILLER_0_29_23
*838 FILLER_0_29_3
*839 FILLER_0_29_57
*840 FILLER_0_29_69
*841 FILLER_0_2_15
*842 FILLER_0_2_27
*843 FILLER_0_2_29
*844 FILLER_0_2_3
*845 FILLER_0_2_41
*846 FILLER_0_2_53
*847 FILLER_0_2_65
*848 FILLER_0_2_77
*849 FILLER_0_30_15
*850 FILLER_0_30_29
*851 FILLER_0_30_3
*852 FILLER_0_30_58
*853 FILLER_0_30_70
*854 FILLER_0_30_78
*855 FILLER_0_31_15
*856 FILLER_0_31_23
*857 FILLER_0_31_3
*858 FILLER_0_31_57
*859 FILLER_0_31_69
*860 FILLER_0_32_15
*861 FILLER_0_32_29
*862 FILLER_0_32_3
*863 FILLER_0_32_58
*864 FILLER_0_32_70
*865 FILLER_0_32_78
*866 FILLER_0_33_15
*867 FILLER_0_33_23
*868 FILLER_0_33_3
*869 FILLER_0_33_57
*870 FILLER_0_33_69
*871 FILLER_0_34_15
*872 FILLER_0_34_29
*873 FILLER_0_34_3
*874 FILLER_0_34_35
*875 FILLER_0_34_59
*876 FILLER_0_34_71
*877 FILLER_0_34_79
*878 FILLER_0_35_15
*879 FILLER_0_35_23
*880 FILLER_0_35_3
*881 FILLER_0_35_57
*882 FILLER_0_35_69
*883 FILLER_0_36_15
*884 FILLER_0_36_29
*885 FILLER_0_36_3
*886 FILLER_0_36_33
*887 FILLER_0_36_60
*888 FILLER_0_36_72
*889 FILLER_0_36_80
*890 FILLER_0_37_15
*891 FILLER_0_37_3
*892 FILLER_0_37_57
*893 FILLER_0_37_69
*894 FILLER_0_38_3
*895 FILLER_0_38_58
*896 FILLER_0_38_70
*897 FILLER_0_38_78
*898 FILLER_0_39_15
*899 FILLER_0_39_3
*900 FILLER_0_39_57
*901 FILLER_0_39_69
*902 FILLER_0_3_15
*903 FILLER_0_3_27
*904 FILLER_0_3_3
*905 FILLER_0_3_39
*906 FILLER_0_3_51
*907 FILLER_0_3_55
*908 FILLER_0_3_57
*909 FILLER_0_3_69
*910 FILLER_0_40_29
*911 FILLER_0_40_3
*912 FILLER_0_40_33
*913 FILLER_0_40_68
*914 FILLER_0_40_72
*915 FILLER_0_40_80
*916 FILLER_0_41_17
*917 FILLER_0_41_3
*918 FILLER_0_41_57
*919 FILLER_0_41_69
*920 FILLER_0_42_15
*921 FILLER_0_42_27
*922 FILLER_0_42_29
*923 FILLER_0_42_3
*924 FILLER_0_42_33
*925 FILLER_0_42_41
*926 FILLER_0_42_53
*927 FILLER_0_43_15
*928 FILLER_0_43_23
*929 FILLER_0_43_3
*930 FILLER_0_43_57
*931 FILLER_0_43_69
*932 FILLER_0_44_15
*933 FILLER_0_44_29
*934 FILLER_0_44_3
*935 FILLER_0_44_35
*936 FILLER_0_44_59
*937 FILLER_0_44_71
*938 FILLER_0_44_79
*939 FILLER_0_45_15
*940 FILLER_0_45_23
*941 FILLER_0_45_3
*942 FILLER_0_45_57
*943 FILLER_0_45_69
*944 FILLER_0_46_15
*945 FILLER_0_46_29
*946 FILLER_0_46_3
*947 FILLER_0_46_60
*948 FILLER_0_46_72
*949 FILLER_0_46_80
*950 FILLER_0_47_15
*951 FILLER_0_47_23
*952 FILLER_0_47_3
*953 FILLER_0_47_57
*954 FILLER_0_47_69
*955 FILLER_0_48_15
*956 FILLER_0_48_29
*957 FILLER_0_48_3
*958 FILLER_0_48_58
*959 FILLER_0_48_70
*960 FILLER_0_48_78
*961 FILLER_0_49_15
*962 FILLER_0_49_23
*963 FILLER_0_49_3
*964 FILLER_0_49_57
*965 FILLER_0_49_69
*966 FILLER_0_4_15
*967 FILLER_0_4_27
*968 FILLER_0_4_29
*969 FILLER_0_4_3
*970 FILLER_0_4_41
*971 FILLER_0_4_53
*972 FILLER_0_4_65
*973 FILLER_0_4_77
*974 FILLER_0_50_15
*975 FILLER_0_50_29
*976 FILLER_0_50_3
*977 FILLER_0_50_58
*978 FILLER_0_50_70
*979 FILLER_0_50_78
*980 FILLER_0_51_15
*981 FILLER_0_51_23
*982 FILLER_0_51_3
*983 FILLER_0_51_57
*984 FILLER_0_51_69
*985 FILLER_0_52_29
*986 FILLER_0_52_3
*987 FILLER_0_52_60
*988 FILLER_0_52_7
*989 FILLER_0_52_72
*990 FILLER_0_52_80
*991 FILLER_0_53_11
*992 FILLER_0_53_3
*993 FILLER_0_53_57
*994 FILLER_0_53_69
*995 FILLER_0_54_15
*996 FILLER_0_54_3
*997 FILLER_0_54_58
*998 FILLER_0_54_70
*999 FILLER_0_54_78
*1000 FILLER_0_55_15
*1001 FILLER_0_55_23
*1002 FILLER_0_55_3
*1003 FILLER_0_55_57
*1004 FILLER_0_55_69
*1005 FILLER_0_56_15
*1006 FILLER_0_56_29
*1007 FILLER_0_56_3
*1008 FILLER_0_56_35
*1009 FILLER_0_56_65
*1010 FILLER_0_56_69
*1011 FILLER_0_57_15
*1012 FILLER_0_57_23
*1013 FILLER_0_57_3
*1014 FILLER_0_57_68
*1015 FILLER_0_57_72
*1016 FILLER_0_57_80
*1017 FILLER_0_58_15
*1018 FILLER_0_58_29
*1019 FILLER_0_58_3
*1020 FILLER_0_58_35
*1021 FILLER_0_58_70
*1022 FILLER_0_58_74
*1023 FILLER_0_58_80
*1024 FILLER_0_59_15
*1025 FILLER_0_59_23
*1026 FILLER_0_59_3
*1027 FILLER_0_59_57
*1028 FILLER_0_59_69
*1029 FILLER_0_5_15
*1030 FILLER_0_5_27
*1031 FILLER_0_5_3
*1032 FILLER_0_5_39
*1033 FILLER_0_5_51
*1034 FILLER_0_5_55
*1035 FILLER_0_5_57
*1036 FILLER_0_5_69
*1037 FILLER_0_60_15
*1038 FILLER_0_60_29
*1039 FILLER_0_60_3
*1040 FILLER_0_60_60
*1041 FILLER_0_60_72
*1042 FILLER_0_60_80
*1043 FILLER_0_61_15
*1044 FILLER_0_61_23
*1045 FILLER_0_61_3
*1046 FILLER_0_61_57
*1047 FILLER_0_61_69
*1048 FILLER_0_62_29
*1049 FILLER_0_62_3
*1050 FILLER_0_62_60
*1051 FILLER_0_62_7
*1052 FILLER_0_62_72
*1053 FILLER_0_62_80
*1054 FILLER_0_63_11
*1055 FILLER_0_63_3
*1056 FILLER_0_63_57
*1057 FILLER_0_63_69
*1058 FILLER_0_64_3
*1059 FILLER_0_64_58
*1060 FILLER_0_64_70
*1061 FILLER_0_64_78
*1062 FILLER_0_65_15
*1063 FILLER_0_65_23
*1064 FILLER_0_65_3
*1065 FILLER_0_65_57
*1066 FILLER_0_65_69
*1067 FILLER_0_66_15
*1068 FILLER_0_66_18
*1069 FILLER_0_66_29
*1070 FILLER_0_66_3
*1071 FILLER_0_66_57
*1072 FILLER_0_66_69
*1073 FILLER_0_67_23
*1074 FILLER_0_67_3
*1075 FILLER_0_67_57
*1076 FILLER_0_67_69
*1077 FILLER_0_67_9
*1078 FILLER_0_68_3
*1079 FILLER_0_68_35
*1080 FILLER_0_68_7
*1081 FILLER_0_68_80
*1082 FILLER_0_69_15
*1083 FILLER_0_69_23
*1084 FILLER_0_69_3
*1085 FILLER_0_69_73
*1086 FILLER_0_6_15
*1087 FILLER_0_6_27
*1088 FILLER_0_6_29
*1089 FILLER_0_6_3
*1090 FILLER_0_6_41
*1091 FILLER_0_6_53
*1092 FILLER_0_6_65
*1093 FILLER_0_6_77
*1094 FILLER_0_70_15
*1095 FILLER_0_70_27
*1096 FILLER_0_70_29
*1097 FILLER_0_70_3
*1098 FILLER_0_70_33
*1099 FILLER_0_70_68
*1100 FILLER_0_70_72
*1101 FILLER_0_70_80
*1102 FILLER_0_71_15
*1103 FILLER_0_71_23
*1104 FILLER_0_71_3
*1105 FILLER_0_71_57
*1106 FILLER_0_71_69
*1107 FILLER_0_72_15
*1108 FILLER_0_72_29
*1109 FILLER_0_72_3
*1110 FILLER_0_72_35
*1111 FILLER_0_72_59
*1112 FILLER_0_72_71
*1113 FILLER_0_72_79
*1114 FILLER_0_73_15
*1115 FILLER_0_73_23
*1116 FILLER_0_73_3
*1117 FILLER_0_73_57
*1118 FILLER_0_73_69
*1119 FILLER_0_74_15
*1120 FILLER_0_74_25
*1121 FILLER_0_74_29
*1122 FILLER_0_74_3
*1123 FILLER_0_74_33
*1124 FILLER_0_74_45
*1125 FILLER_0_74_53
*1126 FILLER_0_74_59
*1127 FILLER_0_74_71
*1128 FILLER_0_74_79
*1129 FILLER_0_75_15
*1130 FILLER_0_75_23
*1131 FILLER_0_75_3
*1132 FILLER_0_75_57
*1133 FILLER_0_76_3
*1134 FILLER_0_76_35
*1135 FILLER_0_76_59
*1136 FILLER_0_76_7
*1137 FILLER_0_76_71
*1138 FILLER_0_76_79
*1139 FILLER_0_77_11
*1140 FILLER_0_77_3
*1141 FILLER_0_77_57
*1142 FILLER_0_77_69
*1143 FILLER_0_78_15
*1144 FILLER_0_78_29
*1145 FILLER_0_78_3
*1146 FILLER_0_78_35
*1147 FILLER_0_78_59
*1148 FILLER_0_78_71
*1149 FILLER_0_78_79
*1150 FILLER_0_79_15
*1151 FILLER_0_79_23
*1152 FILLER_0_79_3
*1153 FILLER_0_79_68
*1154 FILLER_0_79_72
*1155 FILLER_0_79_80
*1156 FILLER_0_7_15
*1157 FILLER_0_7_27
*1158 FILLER_0_7_3
*1159 FILLER_0_7_39
*1160 FILLER_0_7_51
*1161 FILLER_0_7_55
*1162 FILLER_0_7_57
*1163 FILLER_0_7_69
*1164 FILLER_0_80_15
*1165 FILLER_0_80_29
*1166 FILLER_0_80_3
*1167 FILLER_0_80_69
*1168 FILLER_0_80_73
*1169 FILLER_0_81_15
*1170 FILLER_0_81_23
*1171 FILLER_0_81_3
*1172 FILLER_0_81_57
*1173 FILLER_0_81_69
*1174 FILLER_0_82_29
*1175 FILLER_0_82_3
*1176 FILLER_0_82_35
*1177 FILLER_0_82_59
*1178 FILLER_0_82_7
*1179 FILLER_0_82_71
*1180 FILLER_0_82_79
*1181 FILLER_0_83_15
*1182 FILLER_0_83_23
*1183 FILLER_0_83_3
*1184 FILLER_0_83_57
*1185 FILLER_0_83_69
*1186 FILLER_0_84_3
*1187 FILLER_0_84_33
*1188 FILLER_0_84_64
*1189 FILLER_0_84_68
*1190 FILLER_0_84_80
*1191 FILLER_0_85_15
*1192 FILLER_0_85_23
*1193 FILLER_0_85_3
*1194 FILLER_0_85_57
*1195 FILLER_0_85_69
*1196 FILLER_0_86_15
*1197 FILLER_0_86_29
*1198 FILLER_0_86_3
*1199 FILLER_0_86_35
*1200 FILLER_0_86_59
*1201 FILLER_0_86_71
*1202 FILLER_0_86_79
*1203 FILLER_0_87_15
*1204 FILLER_0_87_23
*1205 FILLER_0_87_3
*1206 FILLER_0_87_57
*1207 FILLER_0_87_69
*1208 FILLER_0_88_15
*1209 FILLER_0_88_29
*1210 FILLER_0_88_3
*1211 FILLER_0_88_58
*1212 FILLER_0_88_70
*1213 FILLER_0_88_78
*1214 FILLER_0_89_15
*1215 FILLER_0_89_23
*1216 FILLER_0_89_3
*1217 FILLER_0_89_57
*1218 FILLER_0_89_69
*1219 FILLER_0_8_15
*1220 FILLER_0_8_27
*1221 FILLER_0_8_29
*1222 FILLER_0_8_3
*1223 FILLER_0_8_41
*1224 FILLER_0_8_53
*1225 FILLER_0_8_65
*1226 FILLER_0_8_77
*1227 FILLER_0_90_15
*1228 FILLER_0_90_29
*1229 FILLER_0_90_3
*1230 FILLER_0_90_33
*1231 FILLER_0_90_57
*1232 FILLER_0_90_69
*1233 FILLER_0_91_15
*1234 FILLER_0_91_23
*1235 FILLER_0_91_3
*1236 FILLER_0_91_57
*1237 FILLER_0_91_69
*1238 FILLER_0_92_15
*1239 FILLER_0_92_3
*1240 FILLER_0_92_33
*1241 FILLER_0_92_59
*1242 FILLER_0_92_71
*1243 FILLER_0_92_79
*1244 FILLER_0_93_15
*1245 FILLER_0_93_23
*1246 FILLER_0_93_3
*1247 FILLER_0_93_57
*1248 FILLER_0_93_69
*1249 FILLER_0_94_15
*1250 FILLER_0_94_29
*1251 FILLER_0_94_3
*1252 FILLER_0_94_35
*1253 FILLER_0_94_59
*1254 FILLER_0_94_71
*1255 FILLER_0_94_79
*1256 FILLER_0_95_15
*1257 FILLER_0_95_23
*1258 FILLER_0_95_3
*1259 FILLER_0_95_57
*1260 FILLER_0_95_69
*1261 FILLER_0_96_15
*1262 FILLER_0_96_3
*1263 FILLER_0_96_35
*1264 FILLER_0_96_59
*1265 FILLER_0_96_71
*1266 FILLER_0_96_79
*1267 FILLER_0_97_15
*1268 FILLER_0_97_23
*1269 FILLER_0_97_3
*1270 FILLER_0_97_57
*1271 FILLER_0_97_69
*1272 FILLER_0_98_3
*1273 FILLER_0_98_35
*1274 FILLER_0_98_71
*1275 FILLER_0_98_75
*1276 FILLER_0_99_15
*1277 FILLER_0_99_23
*1278 FILLER_0_99_3
*1279 FILLER_0_99_57
*1280 FILLER_0_99_69
*1281 FILLER_0_9_15
*1282 FILLER_0_9_27
*1283 FILLER_0_9_3
*1284 FILLER_0_9_39
*1285 FILLER_0_9_51
*1286 FILLER_0_9_55
*1287 FILLER_0_9_57
*1288 FILLER_0_9_69
*1289 PHY_0
*1290 PHY_1
*1291 PHY_10
*1292 PHY_100
*1293 PHY_101
*1294 PHY_102
*1295 PHY_103
*1296 PHY_104
*1297 PHY_105
*1298 PHY_106
*1299 PHY_107
*1300 PHY_108
*1301 PHY_109
*1302 PHY_11
*1303 PHY_110
*1304 PHY_111
*1305 PHY_112
*1306 PHY_113
*1307 PHY_114
*1308 PHY_115
*1309 PHY_116
*1310 PHY_117
*1311 PHY_118
*1312 PHY_119
*1313 PHY_12
*1314 PHY_120
*1315 PHY_121
*1316 PHY_122
*1317 PHY_123
*1318 PHY_124
*1319 PHY_125
*1320 PHY_126
*1321 PHY_127
*1322 PHY_128
*1323 PHY_129
*1324 PHY_13
*1325 PHY_130
*1326 PHY_131
*1327 PHY_132
*1328 PHY_133
*1329 PHY_134
*1330 PHY_135
*1331 PHY_136
*1332 PHY_137
*1333 PHY_138
*1334 PHY_139
*1335 PHY_14
*1336 PHY_140
*1337 PHY_141
*1338 PHY_142
*1339 PHY_143
*1340 PHY_144
*1341 PHY_145
*1342 PHY_146
*1343 PHY_147
*1344 PHY_148
*1345 PHY_149
*1346 PHY_15
*1347 PHY_150
*1348 PHY_151
*1349 PHY_152
*1350 PHY_153
*1351 PHY_154
*1352 PHY_155
*1353 PHY_156
*1354 PHY_157
*1355 PHY_158
*1356 PHY_159
*1357 PHY_16
*1358 PHY_160
*1359 PHY_161
*1360 PHY_162
*1361 PHY_163
*1362 PHY_164
*1363 PHY_165
*1364 PHY_166
*1365 PHY_167
*1366 PHY_168
*1367 PHY_169
*1368 PHY_17
*1369 PHY_170
*1370 PHY_171
*1371 PHY_172
*1372 PHY_173
*1373 PHY_174
*1374 PHY_175
*1375 PHY_176
*1376 PHY_177
*1377 PHY_178
*1378 PHY_179
*1379 PHY_18
*1380 PHY_180
*1381 PHY_181
*1382 PHY_182
*1383 PHY_183
*1384 PHY_184
*1385 PHY_185
*1386 PHY_186
*1387 PHY_187
*1388 PHY_188
*1389 PHY_189
*1390 PHY_19
*1391 PHY_190
*1392 PHY_191
*1393 PHY_192
*1394 PHY_193
*1395 PHY_194
*1396 PHY_195
*1397 PHY_196
*1398 PHY_197
*1399 PHY_198
*1400 PHY_199
*1401 PHY_2
*1402 PHY_20
*1403 PHY_200
*1404 PHY_201
*1405 PHY_202
*1406 PHY_203
*1407 PHY_204
*1408 PHY_205
*1409 PHY_206
*1410 PHY_207
*1411 PHY_208
*1412 PHY_209
*1413 PHY_21
*1414 PHY_210
*1415 PHY_211
*1416 PHY_212
*1417 PHY_213
*1418 PHY_214
*1419 PHY_215
*1420 PHY_216
*1421 PHY_217
*1422 PHY_218
*1423 PHY_219
*1424 PHY_22
*1425 PHY_220
*1426 PHY_221
*1427 PHY_222
*1428 PHY_223
*1429 PHY_224
*1430 PHY_225
*1431 PHY_226
*1432 PHY_227
*1433 PHY_228
*1434 PHY_229
*1435 PHY_23
*1436 PHY_230
*1437 PHY_231
*1438 PHY_232
*1439 PHY_233
*1440 PHY_234
*1441 PHY_235
*1442 PHY_236
*1443 PHY_237
*1444 PHY_238
*1445 PHY_239
*1446 PHY_24
*1447 PHY_240
*1448 PHY_241
*1449 PHY_242
*1450 PHY_243
*1451 PHY_244
*1452 PHY_245
*1453 PHY_246
*1454 PHY_247
*1455 PHY_248
*1456 PHY_249
*1457 PHY_25
*1458 PHY_250
*1459 PHY_251
*1460 PHY_252
*1461 PHY_253
*1462 PHY_254
*1463 PHY_255
*1464 PHY_256
*1465 PHY_257
*1466 PHY_258
*1467 PHY_259
*1468 PHY_26
*1469 PHY_260
*1470 PHY_261
*1471 PHY_262
*1472 PHY_263
*1473 PHY_264
*1474 PHY_265
*1475 PHY_266
*1476 PHY_267
*1477 PHY_268
*1478 PHY_269
*1479 PHY_27
*1480 PHY_270
*1481 PHY_271
*1482 PHY_272
*1483 PHY_273
*1484 PHY_274
*1485 PHY_275
*1486 PHY_276
*1487 PHY_277
*1488 PHY_28
*1489 PHY_29
*1490 PHY_3
*1491 PHY_30
*1492 PHY_31
*1493 PHY_32
*1494 PHY_33
*1495 PHY_34
*1496 PHY_35
*1497 PHY_36
*1498 PHY_37
*1499 PHY_38
*1500 PHY_39
*1501 PHY_4
*1502 PHY_40
*1503 PHY_41
*1504 PHY_42
*1505 PHY_43
*1506 PHY_44
*1507 PHY_45
*1508 PHY_46
*1509 PHY_47
*1510 PHY_48
*1511 PHY_49
*1512 PHY_5
*1513 PHY_50
*1514 PHY_51
*1515 PHY_52
*1516 PHY_53
*1517 PHY_54
*1518 PHY_55
*1519 PHY_56
*1520 PHY_57
*1521 PHY_58
*1522 PHY_59
*1523 PHY_6
*1524 PHY_60
*1525 PHY_61
*1526 PHY_62
*1527 PHY_63
*1528 PHY_64
*1529 PHY_65
*1530 PHY_66
*1531 PHY_67
*1532 PHY_68
*1533 PHY_69
*1534 PHY_7
*1535 PHY_70
*1536 PHY_71
*1537 PHY_72
*1538 PHY_73
*1539 PHY_74
*1540 PHY_75
*1541 PHY_76
*1542 PHY_77
*1543 PHY_78
*1544 PHY_79
*1545 PHY_8
*1546 PHY_80
*1547 PHY_81
*1548 PHY_82
*1549 PHY_83
*1550 PHY_84
*1551 PHY_85
*1552 PHY_86
*1553 PHY_87
*1554 PHY_88
*1555 PHY_89
*1556 PHY_9
*1557 PHY_90
*1558 PHY_91
*1559 PHY_92
*1560 PHY_93
*1561 PHY_94
*1562 PHY_95
*1563 PHY_96
*1564 PHY_97
*1565 PHY_98
*1566 PHY_99
*1567 TAP_278
*1568 TAP_279
*1569 TAP_280
*1570 TAP_281
*1571 TAP_282
*1572 TAP_283
*1573 TAP_284
*1574 TAP_285
*1575 TAP_286
*1576 TAP_287
*1577 TAP_288
*1578 TAP_289
*1579 TAP_290
*1580 TAP_291
*1581 TAP_292
*1582 TAP_293
*1583 TAP_294
*1584 TAP_295
*1585 TAP_296
*1586 TAP_297
*1587 TAP_298
*1588 TAP_299
*1589 TAP_300
*1590 TAP_301
*1591 TAP_302
*1592 TAP_303
*1593 TAP_304
*1594 TAP_305
*1595 TAP_306
*1596 TAP_307
*1597 TAP_308
*1598 TAP_309
*1599 TAP_310
*1600 TAP_311
*1601 TAP_312
*1602 TAP_313
*1603 TAP_314
*1604 TAP_315
*1605 TAP_316
*1606 TAP_317
*1607 TAP_318
*1608 TAP_319
*1609 TAP_320
*1610 TAP_321
*1611 TAP_322
*1612 TAP_323
*1613 TAP_324
*1614 TAP_325
*1615 TAP_326
*1616 TAP_327
*1617 TAP_328
*1618 TAP_329
*1619 TAP_330
*1620 TAP_331
*1621 TAP_332
*1622 TAP_333
*1623 TAP_334
*1624 TAP_335
*1625 TAP_336
*1626 TAP_337
*1627 TAP_338
*1628 TAP_339
*1629 TAP_340
*1630 TAP_341
*1631 TAP_342
*1632 TAP_343
*1633 TAP_344
*1634 TAP_345
*1635 TAP_346
*1636 TAP_347
*1637 TAP_348
*1638 TAP_349
*1639 TAP_350
*1640 TAP_351
*1641 TAP_352
*1642 TAP_353
*1643 TAP_354
*1644 TAP_355
*1645 TAP_356
*1646 TAP_357
*1647 TAP_358
*1648 TAP_359
*1649 TAP_360
*1650 TAP_361
*1651 TAP_362
*1652 TAP_363
*1653 TAP_364
*1654 TAP_365
*1655 TAP_366
*1656 TAP_367
*1657 TAP_368
*1658 TAP_369
*1659 TAP_370
*1660 TAP_371
*1661 TAP_372
*1662 TAP_373
*1663 TAP_374
*1664 TAP_375
*1665 TAP_376
*1666 TAP_377
*1667 TAP_378
*1668 TAP_379
*1669 TAP_380
*1670 TAP_381
*1671 TAP_382
*1672 TAP_383
*1673 TAP_384
*1674 TAP_385
*1675 TAP_386
*1676 TAP_387
*1677 TAP_388
*1678 TAP_389
*1679 TAP_390
*1680 TAP_391
*1681 TAP_392
*1682 TAP_393
*1683 TAP_394
*1684 TAP_395
*1685 TAP_396
*1686 TAP_397
*1687 TAP_398
*1688 TAP_399
*1689 TAP_400
*1690 TAP_401
*1691 TAP_402
*1692 TAP_403
*1693 TAP_404
*1694 TAP_405
*1695 TAP_406
*1696 TAP_407
*1697 TAP_408
*1698 TAP_409
*1699 TAP_410
*1700 TAP_411
*1701 TAP_412
*1702 TAP_413
*1703 TAP_414
*1704 TAP_415
*1705 TAP_416
*1706 TAP_417
*1707 TAP_418
*1708 _116_
*1709 _117_
*1710 _118_
*1711 _119_
*1712 _120_
*1713 _121_
*1714 _122_
*1715 _123_
*1716 _124_
*1717 _125_
*1718 _126_
*1719 _127_
*1720 _128_
*1721 _129_
*1722 _130_
*1723 _131_
*1724 _132_
*1725 _133_
*1726 _134_
*1727 _135_
*1728 _136_
*1729 _137_
*1730 _138_
*1731 _139_
*1732 _140_
*1733 _141_
*1734 _142_
*1735 _143_
*1736 _144_
*1737 _145_
*1738 _146_
*1739 _147_
*1740 _148_
*1741 _149_
*1742 _150_
*1743 _151_
*1744 _152_
*1745 _153_
*1746 _154_
*1747 _155_
*1748 _156_
*1749 _157_
*1750 _158_
*1751 _159_
*1752 _160_
*1753 _161_
*1754 _162_
*1755 _163_
*1756 _164_
*1757 _165_
*1758 _166_
*1759 _167_
*1760 _168_
*1761 _169_
*1762 _170_
*1763 _171_
*1764 _172_
*1765 _173_
*1766 _174_
*1767 _175_
*1768 _176_
*1769 _177_
*1770 _178_
*1771 _179_
*1772 _180_
*1773 _181_
*1774 _182_
*1775 _183_
*1776 _184_
*1777 _185_
*1778 _186_
*1779 _187_
*1780 _188_
*1781 _189_
*1782 _190_
*1783 _191_
*1784 _192_
*1785 _193_
*1786 _194_
*1787 _195_
*1788 _196_
*1789 _197_
*1790 _198_
*1791 _199_
*1792 _200_
*1793 _201_
*1794 _202_
*1795 _203_
*1796 _204_
*1797 _205_
*1798 _206_
*1799 _207_
*1800 _208_
*1801 _209_
*1802 _210_
*1803 _211_
*1804 _212_
*1805 _213_
*1806 _214_
*1807 _215_
*1808 _216_
*1809 _217_
*1810 _218_
*1811 _219_
*1812 _220_
*1813 _221_
*1814 _222_
*1815 _223_
*1816 _224_
*1817 _225_
*1818 _226_
*1819 _227_
*1820 _228_
*1821 _229_
*1822 _230_
*1823 _231_
*1824 _232_
*1825 _233_
*1826 _234_
*1827 _235_
*1828 _236_
*1829 _237_
*1830 _238_
*1831 _239_
*1832 _240_
*1833 _241_
*1834 _242_
*1835 _243_
*1836 _244_
*1837 _245_
*1838 _246_
*1839 _247_
*1840 _248_
*1841 _249_
*1842 _250_
*1843 _251_
*1844 _252_
*1845 _253_
*1846 _254_
*1847 _255_
*1848 _256_
*1849 _257_
*1850 _258_
*1851 _259_
*1852 _260_
*1853 _261_
*1854 _262_
*1855 _263_
*1856 _264_
*1857 _265_
*1858 _266_
*1859 _267_
*1860 _268_
*1861 _269_
*1862 _270_
*1863 _271_
*1864 _272_
*1865 _273_
*1866 _274_
*1867 _275_
*1868 _276_
*1869 _277_
*1870 _278_
*1871 _279_
*1872 _280_
*1873 _281_
*1874 _282_
*1875 _283_
*1876 _284_
*1877 _285_
*1878 _286_
*1879 _287_
*1880 _288_
*1881 _289_
*1882 _290_
*1883 _291_
*1884 _292_
*1885 _293_
*1886 _294_
*1887 _295_
*1888 _296_
*1889 _297_
*1890 _298_
*1891 _299_
*1892 _300_
*1893 _301_
*1894 _302_
*1895 _303_
*1896 _304_
*1897 _305_
*1898 _306_
*1899 _307_
*1900 _308_
*1901 _309_
*1902 _310_
*1903 _311_
*1904 _312_
*1905 _313_
*1906 _314_
*1907 _315_
*1908 _316_
*1909 _317_
*1910 _318_
*1911 _319_
*1912 _320_
*1913 _321_
*1914 _322_
*1915 _323_
*1916 _324_
*1917 _325_
*1918 _326_
*1919 _327_
*1920 _328_
*1921 _329_
*1922 _330_
*1923 _331_
*1924 _332_
*1925 _333_
*1926 _334_
*1927 _335_
*1928 _336_
*1929 _337_
*1930 _338_
*1931 _339_
*1932 _340_
*1933 _341_
*1934 _342_
*1935 _343_
*1936 _344_
*1937 _345_
*1938 _346_
*1939 _347_
*1940 _348_
*1941 _349_
*1942 clkbuf_0_clk_i
*1943 clkbuf_3_0_0_clk_i
*1944 clkbuf_3_1_0_clk_i
*1945 clkbuf_3_2_0_clk_i
*1946 clkbuf_3_3_0_clk_i
*1947 clkbuf_3_4_0_clk_i
*1948 clkbuf_3_5_0_clk_i
*1949 clkbuf_3_6_0_clk_i
*1950 clkbuf_3_7_0_clk_i
*1951 clkbuf_4_0__f_clk_i
*1952 clkbuf_4_10__f_clk_i
*1953 clkbuf_4_11__f_clk_i
*1954 clkbuf_4_12__f_clk_i
*1955 clkbuf_4_13__f_clk_i
*1956 clkbuf_4_14__f_clk_i
*1957 clkbuf_4_15__f_clk_i
*1958 clkbuf_4_1__f_clk_i
*1959 clkbuf_4_2__f_clk_i
*1960 clkbuf_4_3__f_clk_i
*1961 clkbuf_4_4__f_clk_i
*1962 clkbuf_4_5__f_clk_i
*1963 clkbuf_4_6__f_clk_i
*1964 clkbuf_4_7__f_clk_i
*1965 clkbuf_4_8__f_clk_i
*1966 clkbuf_4_9__f_clk_i
*1967 fanout1
*1968 fanout10
*1969 fanout11
*1970 fanout12
*1971 fanout13
*1972 fanout14
*1973 fanout15
*1974 fanout16
*1975 fanout17
*1976 fanout18
*1977 fanout19
*1978 fanout2
*1979 fanout20
*1980 fanout21
*1981 fanout22
*1982 fanout23
*1983 fanout24
*1984 fanout25
*1985 fanout26
*1986 fanout27
*1987 fanout28
*1988 fanout29
*1989 fanout3
*1990 fanout30
*1991 fanout31
*1992 fanout32
*1993 fanout33
*1994 fanout34
*1995 fanout35
*1996 fanout36
*1997 fanout4
*1998 fanout5
*1999 fanout6
*2000 fanout7
*2001 fanout8
*2002 fanout9

*PORTS
busy_o O
clk_i I
mstream_i I
mstream_o[0] O
mstream_o[100] O
mstream_o[101] O
mstream_o[102] O
mstream_o[103] O
mstream_o[104] O
mstream_o[105] O
mstream_o[106] O
mstream_o[107] O
mstream_o[108] O
mstream_o[109] O
mstream_o[10] O
mstream_o[110] O
mstream_o[111] O
mstream_o[112] O
mstream_o[113] O
mstream_o[114] O
mstream_o[115] O
mstream_o[11] O
mstream_o[12] O
mstream_o[13] O
mstream_o[14] O
mstream_o[15] O
mstream_o[16] O
mstream_o[17] O
mstream_o[18] O
mstream_o[19] O
mstream_o[1] O
mstream_o[20] O
mstream_o[21] O
mstream_o[22] O
mstream_o[23] O
mstream_o[24] O
mstream_o[25] O
mstream_o[26] O
mstream_o[27] O
mstream_o[28] O
mstream_o[29] O
mstream_o[2] O
mstream_o[30] O
mstream_o[31] O
mstream_o[32] O
mstream_o[33] O
mstream_o[34] O
mstream_o[35] O
mstream_o[36] O
mstream_o[37] O
mstream_o[38] O
mstream_o[39] O
mstream_o[3] O
mstream_o[40] O
mstream_o[41] O
mstream_o[42] O
mstream_o[43] O
mstream_o[44] O
mstream_o[45] O
mstream_o[46] O
mstream_o[47] O
mstream_o[48] O
mstream_o[49] O
mstream_o[4] O
mstream_o[50] O
mstream_o[51] O
mstream_o[52] O
mstream_o[53] O
mstream_o[54] O
mstream_o[55] O
mstream_o[56] O
mstream_o[57] O
mstream_o[58] O
mstream_o[59] O
mstream_o[5] O
mstream_o[60] O
mstream_o[61] O
mstream_o[62] O
mstream_o[63] O
mstream_o[64] O
mstream_o[65] O
mstream_o[66] O
mstream_o[67] O
mstream_o[68] O
mstream_o[69] O
mstream_o[6] O
mstream_o[70] O
mstream_o[71] O
mstream_o[72] O
mstream_o[73] O
mstream_o[74] O
mstream_o[75] O
mstream_o[76] O
mstream_o[77] O
mstream_o[78] O
mstream_o[79] O
mstream_o[7] O
mstream_o[80] O
mstream_o[81] O
mstream_o[82] O
mstream_o[83] O
mstream_o[84] O
mstream_o[85] O
mstream_o[86] O
mstream_o[87] O
mstream_o[88] O
mstream_o[89] O
mstream_o[8] O
mstream_o[90] O
mstream_o[91] O
mstream_o[92] O
mstream_o[93] O
mstream_o[94] O
mstream_o[95] O
mstream_o[96] O
mstream_o[97] O
mstream_o[98] O
mstream_o[99] O
mstream_o[9] O
nrst_i I
sstream_i[0] I
sstream_i[100] I
sstream_i[101] I
sstream_i[102] I
sstream_i[103] I
sstream_i[104] I
sstream_i[105] I
sstream_i[106] I
sstream_i[107] I
sstream_i[108] I
sstream_i[109] I
sstream_i[10] I
sstream_i[110] I
sstream_i[111] I
sstream_i[112] I
sstream_i[113] I
sstream_i[114] I
sstream_i[115] I
sstream_i[11] I
sstream_i[12] I
sstream_i[13] I
sstream_i[14] I
sstream_i[15] I
sstream_i[16] I
sstream_i[17] I
sstream_i[18] I
sstream_i[19] I
sstream_i[1] I
sstream_i[20] I
sstream_i[21] I
sstream_i[22] I
sstream_i[23] I
sstream_i[24] I
sstream_i[25] I
sstream_i[26] I
sstream_i[27] I
sstream_i[28] I
sstream_i[29] I
sstream_i[2] I
sstream_i[30] I
sstream_i[31] I
sstream_i[32] I
sstream_i[33] I
sstream_i[34] I
sstream_i[35] I
sstream_i[36] I
sstream_i[37] I
sstream_i[38] I
sstream_i[39] I
sstream_i[3] I
sstream_i[40] I
sstream_i[41] I
sstream_i[42] I
sstream_i[43] I
sstream_i[44] I
sstream_i[45] I
sstream_i[46] I
sstream_i[47] I
sstream_i[48] I
sstream_i[49] I
sstream_i[4] I
sstream_i[50] I
sstream_i[51] I
sstream_i[52] I
sstream_i[53] I
sstream_i[54] I
sstream_i[55] I
sstream_i[56] I
sstream_i[57] I
sstream_i[58] I
sstream_i[59] I
sstream_i[5] I
sstream_i[60] I
sstream_i[61] I
sstream_i[62] I
sstream_i[63] I
sstream_i[64] I
sstream_i[65] I
sstream_i[66] I
sstream_i[67] I
sstream_i[68] I
sstream_i[69] I
sstream_i[6] I
sstream_i[70] I
sstream_i[71] I
sstream_i[72] I
sstream_i[73] I
sstream_i[74] I
sstream_i[75] I
sstream_i[76] I
sstream_i[77] I
sstream_i[78] I
sstream_i[79] I
sstream_i[7] I
sstream_i[80] I
sstream_i[81] I
sstream_i[82] I
sstream_i[83] I
sstream_i[84] I
sstream_i[85] I
sstream_i[86] I
sstream_i[87] I
sstream_i[88] I
sstream_i[89] I
sstream_i[8] I
sstream_i[90] I
sstream_i[91] I
sstream_i[92] I
sstream_i[93] I
sstream_i[94] I
sstream_i[95] I
sstream_i[96] I
sstream_i[97] I
sstream_i[98] I
sstream_i[99] I
sstream_i[9] I
sstream_o O

*D_NET *1 0.0466426
*CONN
*P busy_o O
*I *1821:X O *D sky130_fd_sc_hd__or2_4
*CAP
1 busy_o 0.0125714
2 *1821:X 0.000397055
3 *1:16 0.0142784
4 *1:12 0.00210404
5 busy_o mstream_o[0] 0.000155786
6 busy_o mstream_o[10] 0.000155786
7 busy_o mstream_o[13] 0.00012799
8 busy_o mstream_o[14] 0.000158008
9 busy_o mstream_o[16] 0.000155786
10 busy_o mstream_o[18] 0.000155786
11 busy_o mstream_o[19] 0.00012799
12 busy_o mstream_o[1] 0.00012799
13 busy_o mstream_o[20] 0.000155786
14 busy_o mstream_o[21] 0.00012799
15 busy_o mstream_o[24] 0.000155786
16 busy_o mstream_o[26] 0.000155786
17 busy_o mstream_o[28] 0.000155786
18 busy_o mstream_o[29] 0.00012799
19 busy_o mstream_o[31] 6.54744e-05
20 busy_o mstream_o[34] 0.000155786
21 busy_o mstream_o[36] 0.000155786
22 busy_o mstream_o[37] 0.00012799
23 busy_o mstream_o[38] 0.000155786
24 busy_o mstream_o[39] 0.00012799
25 busy_o mstream_o[43] 0.00012799
26 busy_o mstream_o[44] 0.000155786
27 busy_o mstream_o[46] 0.000154856
28 busy_o mstream_o[47] 0.000130212
29 busy_o mstream_o[48] 0.000155786
30 busy_o mstream_o[4] 2.47015e-05
31 busy_o mstream_o[52] 0.000155786
32 busy_o mstream_o[54] 0.000155786
33 busy_o mstream_o[56] 0.000155786
34 busy_o mstream_o[58] 0.000155786
35 busy_o mstream_o[59] 0.00012799
36 busy_o mstream_o[62] 0.000155786
37 busy_o mstream_o[63] 4.2255e-05
38 busy_o mstream_o[64] 0.000154196
39 busy_o mstream_o[65] 0.000130212
40 busy_o mstream_o[66] 0.000155786
41 busy_o mstream_o[69] 0.00012799
42 busy_o mstream_o[6] 0.000155786
43 busy_o mstream_o[72] 0.000155786
44 busy_o mstream_o[74] 0.000155786
45 busy_o mstream_o[76] 0.000155786
46 busy_o mstream_o[77] 0.00012799
47 busy_o mstream_o[79] 0.00012799
48 busy_o mstream_o[80] 0.000155786
49 busy_o mstream_o[82] 0.000155786
50 busy_o mstream_o[84] 0.000155786
51 busy_o mstream_o[86] 0.000155786
52 busy_o mstream_o[8] 0.000155786
53 busy_o mstream_o[90] 0.000155786
54 busy_o mstream_o[92] 0.000155786
55 busy_o mstream_o[94] 0.000155786
56 busy_o mstream_o[95] 4.2255e-05
57 busy_o mstream_o[9] 0.00012799
58 busy_o *3:9 0.00619438
59 busy_o *22:10 0.00012799
60 busy_o *35:10 0.00012799
61 busy_o *45:10 2.31116e-05
62 busy_o *46:10 0.00012799
63 busy_o *53:10 0.00012799
64 busy_o *55:10 0.00012799
65 busy_o *56:10 2.31116e-05
66 busy_o *63:10 0.00012799
67 busy_o *66:10 0.00012799
68 busy_o *72:10 0.00012799
69 busy_o *75:10 0.00012799
70 busy_o *77:10 0.00012799
71 busy_o *83:10 0.00012799
72 busy_o *87:10 2.31116e-05
73 busy_o *88:10 0.00012799
74 busy_o *92:10 0.00012799
75 busy_o *99:10 0.00012799
76 busy_o *103:10 0.00012799
77 busy_o *105:10 0.00012799
78 busy_o *107:10 0.00012799
79 busy_o *356:90 0
80 busy_o *356:110 0
81 busy_o *356:126 0
82 *1:12 *14:10 0.000326002
83 *1:16 mstream_o[100] 0.000153147
84 *1:16 mstream_o[102] 0.000153147
85 *1:16 mstream_o[104] 0.000155369
86 *1:16 *8:10 0.000125378
87 *1:16 *10:10 0.000125378
88 *1:16 *12:10 0.000125378
89 *1:16 *13:10 2.11066e-05
90 *1:16 *116:10 0.000125378
91 *1:16 *117:10 2.11066e-05
92 *1:16 *118:10 0.000125378
*RES
1 *1821:X *1:12 46.3375 
2 *1:12 *1:16 35.2971 
3 *1:16 busy_o 310.642 
*END

*D_NET *2 0.0255711
*CONN
*P clk_i I
*I *1942:A I *D sky130_fd_sc_hd__clkbuf_16
*CAP
1 clk_i 0.000695603
2 *1942:A 0
3 *2:13 0.00947591
4 *2:11 0.010898
5 *2:7 0.00211768
6 *2:13 mstream_o[15] 5.04995e-05
7 *2:13 mstream_o[25] 2.33476e-05
8 *2:13 mstream_o[53] 1.53024e-05
9 *2:13 *1853:RESET_B 0.000111852
10 *2:13 *28:10 9.11667e-05
11 *2:13 *34:10 0
12 *2:13 *39:10 5.94642e-05
13 *2:13 *42:10 0
14 *2:13 *43:10 0
15 *2:13 *48:12 0.000183164
16 *2:13 *54:10 0
17 *2:13 *59:10 9.11667e-05
18 *2:13 *65:10 0
19 *2:13 *70:10 0
20 *2:13 *97:10 9.11667e-05
21 *2:13 *120:21 0.000600765
22 *2:13 *357:10 0.000365567
23 *2:13 *357:20 0
24 *2:13 *376:27 0.000425009
25 *2:13 *404:14 0.000275473
26 *2:13 *410:26 0
27 *2:13 *410:44 0
28 *2:13 *410:66 0
29 *2:13 *410:83 0
*RES
1 clk_i *2:7 29.3343 
2 *2:7 *2:11 40.8721 
3 *2:11 *2:13 185.724 
4 *2:13 *1942:A 38 
*END

*D_NET *3 0.0214403
*CONN
*P mstream_i I
*I *1941:A I *D sky130_fd_sc_hd__buf_12
*CAP
1 mstream_i 0.000408113
2 *1941:A 9.96733e-05
3 *3:9 0.00708998
4 *3:7 0.00739842
5 *1941:A *73:8 0.000188927
6 *3:7 mstream_o[0] 6.08304e-05
7 *3:9 *356:10 0
8 *3:9 *356:12 0
9 *3:9 *356:16 0
10 *3:9 *356:18 0
11 *3:9 *356:22 0
12 *3:9 *356:90 0
13 *3:9 *410:10 0
14 *3:9 *410:26 0
15 busy_o *3:9 0.00619438
*RES
1 mstream_i *3:7 9.10133 
2 *3:7 *3:9 164.772 
3 *3:9 *1941:A 40.0507 
*END

*D_NET *4 0.00284953
*CONN
*P mstream_o[0] O
*I *1822:Q O *D sky130_fd_sc_hd__dfrtp_4
*CAP
1 mstream_o[0] 0.000398175
2 *1822:Q 0.000666114
3 *4:8 0.00106429
4 mstream_o[0] mstream_o[1] 0.000141911
5 *4:8 *410:10 0.000362421
6 busy_o mstream_o[0] 0.000155786
7 *3:7 mstream_o[0] 6.08304e-05
*RES
1 *1822:Q *4:8 49.5793 
2 *4:8 mstream_o[0] 11.1645 
*END

*D_NET *5 0.00292424
*CONN
*P mstream_o[100] O
*I *1922:Q O *D sky130_fd_sc_hd__dfrtp_4
*CAP
1 mstream_o[100] 0.000435846
2 *1922:Q 0.000674004
3 *5:8 0.00110985
4 mstream_o[100] mstream_o[101] 0.000155562
5 mstream_o[100] mstream_o[99] 6.64604e-05
6 mstream_o[100] *356:158 0
7 *5:8 *1995:A 0.000146822
8 *5:8 *409:6 0.000182547
9 *1:16 mstream_o[100] 0.000153147
*RES
1 *1922:Q *5:8 49.1029 
2 *5:8 mstream_o[100] 11.2503 
*END

*D_NET *6 0.00292773
*CONN
*P mstream_o[101] O
*I *1923:Q O *D sky130_fd_sc_hd__dfrtp_4
*CAP
1 mstream_o[101] 0.00104995
2 *1923:Q 0.000254056
3 *6:12 0.00130401
4 mstream_o[101] mstream_o[102] 6.7096e-05
5 *6:12 *364:10 9.70602e-05
6 *6:12 *371:86 0
7 mstream_o[100] mstream_o[101] 0.000155562
*RES
1 *1923:Q *6:12 42.6296 
2 *6:12 mstream_o[101] 10.5424 
*END

*D_NET *7 0.00271701
*CONN
*P mstream_o[102] O
*I *1924:Q O *D sky130_fd_sc_hd__dfrtp_4
*CAP
1 mstream_o[102] 0.000429893
2 *1924:Q 0.000740709
3 *7:8 0.0011706
4 mstream_o[102] mstream_o[103] 0.000155562
5 mstream_o[101] mstream_o[102] 6.7096e-05
6 *1:16 mstream_o[102] 0.000153147
*RES
1 *1924:Q *7:8 49.1029 
2 *7:8 mstream_o[102] 11.2503 
*END

*D_NET *8 0.00207562
*CONN
*P mstream_o[103] O
*I *1925:Q O *D sky130_fd_sc_hd__dfrtp_4
*CAP
1 mstream_o[103] 0.000264177
2 *1925:Q 0.000599935
3 *8:10 0.000864112
4 mstream_o[103] mstream_o[104] 6.64604e-05
5 mstream_o[102] mstream_o[103] 0.000155562
6 *1:16 *8:10 0.000125378
*RES
1 *1925:Q *8:10 48.9268 
2 *8:10 mstream_o[103] 8.9296 
*END

*D_NET *9 0.00298239
*CONN
*P mstream_o[104] O
*I *1926:Q O *D sky130_fd_sc_hd__dfrtp_4
*CAP
1 mstream_o[104] 0.000436327
2 *1926:Q 0.000463639
3 *9:10 0.000899967
4 mstream_o[104] mstream_o[105] 0.000155562
5 *9:10 *1956:A 4.50098e-05
6 *9:10 *364:14 0.000364116
7 *9:10 *371:6 0.000321554
8 *9:10 *371:12 7.43845e-05
9 mstream_o[103] mstream_o[104] 6.64604e-05
10 *1:16 mstream_o[104] 0.000155369
*RES
1 *1926:Q *9:10 49.6 
2 *9:10 mstream_o[104] 11.2503 
*END

*D_NET *10 0.00204457
*CONN
*P mstream_o[105] O
*I *1927:Q O *D sky130_fd_sc_hd__dfrtp_4
*CAP
1 mstream_o[105] 0.000262556
2 *1927:Q 0.000586029
3 *10:10 0.000848585
4 mstream_o[105] mstream_o[106] 6.64604e-05
5 mstream_o[104] mstream_o[105] 0.000155562
6 *1:16 *10:10 0.000125378
*RES
1 *1927:Q *10:10 48.9268 
2 *10:10 mstream_o[105] 8.9296 
*END

*D_NET *11 0.00330799
*CONN
*P mstream_o[106] O
*I *1928:Q O *D sky130_fd_sc_hd__dfrtp_4
*CAP
1 mstream_o[106] 0.0012824
2 *1928:Q 0.000101288
3 *11:10 0.00138369
4 mstream_o[106] mstream_o[107] 0.000158855
5 mstream_o[106] *12:10 0.0001618
6 *11:10 *408:157 0.000153507
7 *11:10 *409:80 0
8 *11:10 *409:92 0
9 mstream_o[105] mstream_o[106] 6.64604e-05
*RES
1 *1928:Q *11:10 48.0818 
2 *11:10 mstream_o[106] 3.14347 
*END

*D_NET *12 0.00230276
*CONN
*P mstream_o[107] O
*I *1929:Q O *D sky130_fd_sc_hd__dfrtp_4
*CAP
1 mstream_o[107] 0.000211145
2 *1929:Q 0.000607077
3 *12:10 0.000818222
4 mstream_o[107] mstream_o[108] 0.000220287
5 mstream_o[106] mstream_o[107] 0.000158855
6 mstream_o[106] *12:10 0.0001618
7 *1:16 *12:10 0.000125378
*RES
1 *1929:Q *12:10 48.9268 
2 *12:10 mstream_o[107] 8.9296 
*END

*D_NET *13 0.00251225
*CONN
*P mstream_o[108] O
*I *1930:Q O *D sky130_fd_sc_hd__dfrtp_4
*CAP
1 mstream_o[108] 0.000381626
2 *1930:Q 0.000736465
3 *13:10 0.00111809
4 mstream_o[108] mstream_o[109] 3.22181e-05
5 *13:10 *371:71 2.45549e-06
6 mstream_o[107] mstream_o[108] 0.000220287
7 *1:16 *13:10 2.11066e-05
*RES
1 *1930:Q *13:10 49.4239 
2 *13:10 mstream_o[108] 9.29547 
*END

*D_NET *14 0.00228454
*CONN
*P mstream_o[109] O
*I *1931:Q O *D sky130_fd_sc_hd__dfrtp_4
*CAP
1 mstream_o[109] 0.000321301
2 *1931:Q 0.000536477
3 *14:10 0.000857777
4 mstream_o[109] mstream_o[110] 6.72243e-05
5 *14:10 *137:31 0.000143543
6 mstream_o[108] mstream_o[109] 3.22181e-05
7 *1:12 *14:10 0.000326002
*RES
1 *1931:Q *14:10 49.4032 
2 *14:10 mstream_o[109] 8.9296 
*END

*D_NET *15 0.00274875
*CONN
*P mstream_o[10] O
*I *1832:Q O *D sky130_fd_sc_hd__dfrtp_4
*CAP
1 mstream_o[10] 0.000402539
2 *1832:Q 0.000792885
3 *15:8 0.00119542
4 mstream_o[10] mstream_o[11] 0.000141911
5 mstream_o[10] mstream_o[9] 6.02055e-05
6 busy_o mstream_o[10] 0.000155786
*RES
1 *1832:Q *15:8 49.5793 
2 *15:8 mstream_o[10] 11.1645 
*END

*D_NET *16 0.00217613
*CONN
*P mstream_o[110] O
*I *1932:Q O *D sky130_fd_sc_hd__dfrtp_4
*CAP
1 mstream_o[110] 0.000332288
2 *1932:Q 0.00064239
3 *16:10 0.000974678
4 mstream_o[110] mstream_o[111] 0.000159548
5 mstream_o[109] mstream_o[110] 6.72243e-05
*RES
1 *1932:Q *16:10 47.9946 
2 *16:10 mstream_o[110] 9.16853 
*END

*D_NET *17 0.00211809
*CONN
*P mstream_o[111] O
*I *1933:Q O *D sky130_fd_sc_hd__dfrtp_4
*CAP
1 mstream_o[111] 0.000305351
2 *1933:Q 0.000639994
3 *17:8 0.000945345
4 mstream_o[111] mstream_o[112] 6.78491e-05
5 mstream_o[110] mstream_o[111] 0.000159548
*RES
1 *1933:Q *17:8 49.1029 
2 *17:8 mstream_o[111] 9.95496 
*END

*D_NET *18 0.00276622
*CONN
*P mstream_o[112] O
*I *1934:Q O *D sky130_fd_sc_hd__dfrtp_4
*CAP
1 mstream_o[112] 0.000340241
2 *1934:Q 0.000906143
3 *18:14 0.00124638
4 mstream_o[112] mstream_o[113] 0.000159548
5 *18:14 *1937:CLK 2.30292e-05
6 *18:14 *21:10 2.30292e-05
7 mstream_o[111] mstream_o[112] 6.78491e-05
*RES
1 *1934:Q *18:14 49.9418 
2 *18:14 mstream_o[112] 9.16853 
*END

*D_NET *19 0.00325167
*CONN
*P mstream_o[113] O
*I *1935:Q O *D sky130_fd_sc_hd__dfrtp_4
*CAP
1 mstream_o[113] 0.00120492
2 *1935:Q 0.000111129
3 *19:10 0.00131605
4 mstream_o[113] mstream_o[114] 0.000411323
5 *19:10 mstream_o[114] 4.86945e-05
6 *19:10 *1935:RESET_B 0
7 mstream_o[112] mstream_o[113] 0.000159548
*RES
1 *1935:Q *19:10 48.4339 
2 *19:10 mstream_o[113] 3.2704 
*END

*D_NET *20 0.0048078
*CONN
*P mstream_o[114] O
*I *1821:B I *D sky130_fd_sc_hd__or2_4
*I *1936:Q O *D sky130_fd_sc_hd__dfrtp_4
*CAP
1 mstream_o[114] 0.00153073
2 *1821:B 0.000210076
3 *1936:Q 8.75764e-05
4 *20:8 0.00182838
5 mstream_o[114] mstream_o[115] 3.22181e-05
6 mstream_o[114] *1935:RESET_B 0
7 mstream_o[114] *1937:RESET_B 0
8 mstream_o[114] *257:18 0.000147913
9 mstream_o[114] *371:71 0.00015968
10 *1821:B *137:31 5.50106e-05
11 *1821:B *371:71 5.44889e-06
12 *1821:B *408:157 0.000140661
13 *20:8 *1936:RESET_B 5.3304e-05
14 *20:8 *1937:RESET_B 9.67842e-05
15 mstream_o[113] mstream_o[114] 0.000411323
16 *19:10 mstream_o[114] 4.86945e-05
*RES
1 *1936:Q *20:8 39.5743 
2 *20:8 *1821:B 42.64 
3 *20:8 mstream_o[114] 22.2503 
*END

*D_NET *21 0.00174955
*CONN
*P mstream_o[115] O
*I *1937:Q O *D sky130_fd_sc_hd__dfrtp_4
*CAP
1 mstream_o[115] 0.000374827
2 *1937:Q 0.000472326
3 *21:10 0.000847153
4 mstream_o[114] mstream_o[115] 3.22181e-05
5 *18:14 *21:10 2.30292e-05
*RES
1 *1937:Q *21:10 46.4618 
2 *21:10 mstream_o[115] 9.01547 
*END

*D_NET *22 0.00217728
*CONN
*P mstream_o[11] O
*I *1833:Q O *D sky130_fd_sc_hd__dfrtp_4
*CAP
1 mstream_o[11] 0.000234126
2 *1833:Q 0.000689463
3 *22:10 0.000923588
4 mstream_o[11] mstream_o[12] 6.02055e-05
5 busy_o *22:10 0.00012799
6 mstream_o[10] mstream_o[11] 0.000141911
*RES
1 *1833:Q *22:10 49.4032 
2 *22:10 mstream_o[11] 8.84373 
*END

*D_NET *23 0.00330523
*CONN
*P mstream_o[12] O
*I *1834:Q O *D sky130_fd_sc_hd__dfrtp_4
*CAP
1 mstream_o[12] 0.00142833
2 *1834:Q 0.000101068
3 *23:10 0.00152939
4 mstream_o[12] mstream_o[13] 0.000145195
5 mstream_o[12] mstream_o[15] 0
6 *23:10 *357:10 4.10394e-05
7 *23:10 *401:139 0
8 *23:10 *401:150 0
9 mstream_o[11] mstream_o[12] 6.02055e-05
*RES
1 *1834:Q *23:10 48.0818 
2 *23:10 mstream_o[12] 3.14347 
*END

*D_NET *24 0.00236713
*CONN
*P mstream_o[13] O
*I *1835:Q O *D sky130_fd_sc_hd__dfrtp_4
*CAP
1 mstream_o[13] 0.000305879
2 *1835:Q 0.000589637
3 *24:12 0.000895516
4 mstream_o[13] mstream_o[14] 6.02055e-05
5 *24:12 *418:DIODE 0.000144501
6 *24:12 *358:6 9.8203e-05
7 busy_o mstream_o[13] 0.00012799
8 mstream_o[12] mstream_o[13] 0.000145195
*RES
1 *1835:Q *24:12 48.3157 
2 *24:12 mstream_o[13] 10.5734 
*END

*D_NET *25 0.00264437
*CONN
*P mstream_o[14] O
*I *1836:Q O *D sky130_fd_sc_hd__dfrtp_4
*CAP
1 mstream_o[14] 0.000404584
2 *1836:Q 0.000700327
3 *25:8 0.00110491
4 mstream_o[14] mstream_o[15] 0.000141911
5 *25:8 *1943:A 7.44257e-05
6 busy_o mstream_o[14] 0.000158008
7 mstream_o[13] mstream_o[14] 6.02055e-05
*RES
1 *1836:Q *25:8 35.0764 
2 *25:8 mstream_o[14] 26.1645 
*END

*D_NET *26 0.00272709
*CONN
*P mstream_o[15] O
*I *1837:Q O *D sky130_fd_sc_hd__dfrtp_4
*CAP
1 mstream_o[15] 0.00123693
2 *1837:Q 0.00123693
3 mstream_o[15] mstream_o[16] 6.08304e-05
4 mstream_o[15] mstream_o[17] 0
5 mstream_o[12] mstream_o[15] 0
6 mstream_o[14] mstream_o[15] 0.000141911
7 *2:13 mstream_o[15] 5.04995e-05
*RES
1 *1837:Q mstream_o[15] 49.6001 
*END

*D_NET *27 0.00275432
*CONN
*P mstream_o[16] O
*I *1838:Q O *D sky130_fd_sc_hd__dfrtp_4
*CAP
1 mstream_o[16] 0.000398175
2 *1838:Q 0.000793504
3 *27:8 0.00119168
4 mstream_o[16] mstream_o[17] 0.000141911
5 *27:8 *1838:RESET_B 1.24376e-05
6 busy_o mstream_o[16] 0.000155786
7 mstream_o[15] mstream_o[16] 6.08304e-05
*RES
1 *1838:Q *27:8 49.5793 
2 *27:8 mstream_o[16] 11.1645 
*END

*D_NET *28 0.00299536
*CONN
*P mstream_o[17] O
*I *1839:Q O *D sky130_fd_sc_hd__dfrtp_4
*CAP
1 mstream_o[17] 0.00124622
2 *1839:Q 7.93054e-05
3 *28:10 0.00132553
4 mstream_o[17] mstream_o[18] 6.08304e-05
5 *28:10 *402:40 5.03912e-05
6 mstream_o[15] mstream_o[17] 0
7 mstream_o[16] mstream_o[17] 0.000141911
8 *2:13 *28:10 9.11667e-05
*RES
1 *1839:Q *28:10 48.4339 
2 *28:10 mstream_o[17] 2.88587 
*END

*D_NET *29 0.00276433
*CONN
*P mstream_o[18] O
*I *1840:Q O *D sky130_fd_sc_hd__dfrtp_4
*CAP
1 mstream_o[18] 0.000398175
2 *1840:Q 0.000801637
3 *29:8 0.00119981
4 mstream_o[18] mstream_o[19] 0.000141911
5 *29:8 *1840:RESET_B 6.17437e-06
6 busy_o mstream_o[18] 0.000155786
7 mstream_o[17] mstream_o[18] 6.08304e-05
*RES
1 *1840:Q *29:8 49.5793 
2 *29:8 mstream_o[18] 11.1645 
*END

*D_NET *30 0.00225626
*CONN
*P mstream_o[19] O
*I *1841:Q O *D sky130_fd_sc_hd__dfrtp_4
*CAP
1 mstream_o[19] 0.000311097
2 *1841:Q 0.00065198
3 *30:8 0.000963077
4 mstream_o[19] mstream_o[20] 6.02055e-05
5 busy_o mstream_o[19] 0.00012799
6 mstream_o[18] mstream_o[19] 0.000141911
*RES
1 *1841:Q *30:8 48.6264 
2 *30:8 mstream_o[19] 10.5734 
*END

*D_NET *31 0.00241794
*CONN
*P mstream_o[1] O
*I *1823:Q O *D sky130_fd_sc_hd__dfrtp_4
*CAP
1 mstream_o[1] 0.000311097
2 *1823:Q 0.000610957
3 *31:8 0.000922054
4 mstream_o[1] mstream_o[2] 6.02055e-05
5 *31:8 *442:DIODE 0.000143543
6 *31:8 *1823:RESET_B 0.00010018
7 busy_o mstream_o[1] 0.00012799
8 mstream_o[0] mstream_o[1] 0.000141911
*RES
1 *1823:Q *31:8 48.6264 
2 *31:8 mstream_o[1] 10.5734 
*END

*D_NET *32 0.00276735
*CONN
*P mstream_o[20] O
*I *1842:Q O *D sky130_fd_sc_hd__dfrtp_4
*CAP
1 mstream_o[20] 0.000402539
2 *1842:Q 0.0007991
3 *32:8 0.00120164
4 mstream_o[20] mstream_o[21] 0.000141911
5 *32:8 *1842:RESET_B 6.17437e-06
6 busy_o mstream_o[20] 0.000155786
7 mstream_o[19] mstream_o[20] 6.02055e-05
*RES
1 *1842:Q *32:8 49.5793 
2 *32:8 mstream_o[20] 11.1645 
*END

*D_NET *33 0.00225626
*CONN
*P mstream_o[21] O
*I *1843:Q O *D sky130_fd_sc_hd__dfrtp_4
*CAP
1 mstream_o[21] 0.000311097
2 *1843:Q 0.00065198
3 *33:8 0.000963077
4 mstream_o[21] mstream_o[22] 6.02055e-05
5 busy_o mstream_o[21] 0.00012799
6 mstream_o[20] mstream_o[21] 0.000141911
*RES
1 *1843:Q *33:8 48.6264 
2 *33:8 mstream_o[21] 10.5734 
*END

*D_NET *34 0.00320006
*CONN
*P mstream_o[22] O
*I *1844:Q O *D sky130_fd_sc_hd__dfrtp_4
*CAP
1 mstream_o[22] 0.00138137
2 *1844:Q 0.000115965
3 *34:10 0.00149733
4 mstream_o[22] mstream_o[23] 0.000145195
5 mstream_o[22] mstream_o[25] 0
6 *34:10 *401:166 0
7 mstream_o[21] mstream_o[22] 6.02055e-05
8 *2:13 *34:10 0
*RES
1 *1844:Q *34:10 48.0818 
2 *34:10 mstream_o[22] 3.14347 
*END

*D_NET *35 0.00223667
*CONN
*P mstream_o[23] O
*I *1845:Q O *D sky130_fd_sc_hd__dfrtp_4
*CAP
1 mstream_o[23] 0.000227287
2 *1845:Q 0.000724353
3 *35:10 0.00095164
4 mstream_o[23] mstream_o[24] 6.02055e-05
5 busy_o *35:10 0.00012799
6 mstream_o[22] mstream_o[23] 0.000145195
*RES
1 *1845:Q *35:10 49.8796 
2 *35:10 mstream_o[23] 8.84373 
*END

*D_NET *36 0.00274795
*CONN
*P mstream_o[24] O
*I *1846:Q O *D sky130_fd_sc_hd__dfrtp_4
*CAP
1 mstream_o[24] 0.000402539
2 *1846:Q 0.000792486
3 *36:8 0.00119502
4 mstream_o[24] mstream_o[25] 0.000141911
5 busy_o mstream_o[24] 0.000155786
6 mstream_o[23] mstream_o[24] 6.02055e-05
*RES
1 *1846:Q *36:8 49.5793 
2 *36:8 mstream_o[24] 11.1645 
*END

*D_NET *37 0.00264983
*CONN
*P mstream_o[25] O
*I *1847:Q O *D sky130_fd_sc_hd__dfrtp_4
*CAP
1 mstream_o[25] 0.00121187
2 *1847:Q 0.00121187
3 mstream_o[25] mstream_o[26] 6.08304e-05
4 mstream_o[25] mstream_o[27] 0
5 mstream_o[25] *401:166 0
6 mstream_o[22] mstream_o[25] 0
7 mstream_o[24] mstream_o[25] 0.000141911
8 *2:13 mstream_o[25] 2.33476e-05
*RES
1 *1847:Q mstream_o[25] 49.248 
*END

*D_NET *38 0.00266255
*CONN
*P mstream_o[26] O
*I *1848:Q O *D sky130_fd_sc_hd__dfrtp_4
*CAP
1 mstream_o[26] 0.000398175
2 *1848:Q 0.000753834
3 *38:8 0.00115201
4 mstream_o[26] mstream_o[27] 0.000141911
5 busy_o mstream_o[26] 0.000155786
6 mstream_o[25] mstream_o[26] 6.08304e-05
*RES
1 *1848:Q *38:8 49.5793 
2 *38:8 mstream_o[26] 11.1645 
*END

*D_NET *39 0.00304247
*CONN
*P mstream_o[27] O
*I *1849:Q O *D sky130_fd_sc_hd__dfrtp_4
*CAP
1 mstream_o[27] 0.00128582
2 *1849:Q 0.000104313
3 *39:10 0.00139013
4 mstream_o[27] mstream_o[28] 6.08304e-05
5 *39:10 *401:166 0
6 mstream_o[25] mstream_o[27] 0
7 mstream_o[26] mstream_o[27] 0.000141911
8 *2:13 *39:10 5.94642e-05
*RES
1 *1849:Q *39:10 48.4339 
2 *39:10 mstream_o[27] 2.97173 
*END

*D_NET *40 0.00267673
*CONN
*P mstream_o[28] O
*I *1850:Q O *D sky130_fd_sc_hd__dfrtp_4
*CAP
1 mstream_o[28] 0.000398175
2 *1850:Q 0.000760928
3 *40:8 0.0011591
4 mstream_o[28] mstream_o[29] 0.000141911
5 busy_o mstream_o[28] 0.000155786
6 mstream_o[27] mstream_o[28] 6.08304e-05
*RES
1 *1850:Q *40:8 49.5793 
2 *40:8 mstream_o[28] 11.1645 
*END

*D_NET *41 0.00250006
*CONN
*P mstream_o[29] O
*I *1851:Q O *D sky130_fd_sc_hd__dfrtp_4
*CAP
1 mstream_o[29] 0.000311097
2 *1851:Q 0.000649786
3 *41:8 0.000960883
4 mstream_o[29] mstream_o[30] 6.02055e-05
5 *41:8 *445:DIODE 5.12254e-05
6 *41:8 *1851:RESET_B 0.000141954
7 *41:8 *1990:A 5.50049e-05
8 busy_o mstream_o[29] 0.00012799
9 mstream_o[28] mstream_o[29] 0.000141911
*RES
1 *1851:Q *41:8 49.1029 
2 *41:8 mstream_o[29] 10.5734 
*END

*D_NET *42 0.00321659
*CONN
*P mstream_o[2] O
*I *1824:Q O *D sky130_fd_sc_hd__dfrtp_4
*CAP
1 mstream_o[2] 0.00137993
2 *1824:Q 0.000125669
3 *42:10 0.0015056
4 mstream_o[2] mstream_o[3] 0.000145195
5 *42:10 *1826:RESET_B 0
6 *42:10 *401:38 0
7 mstream_o[1] mstream_o[2] 6.02055e-05
8 *2:13 *42:10 0
*RES
1 *1824:Q *42:10 48.0818 
2 *42:10 mstream_o[2] 3.14347 
*END

*D_NET *43 0.00314864
*CONN
*P mstream_o[30] O
*I *1852:Q O *D sky130_fd_sc_hd__dfrtp_4
*CAP
1 mstream_o[30] 0.00132833
2 *1852:Q 0.000147539
3 *43:10 0.00147587
4 mstream_o[30] mstream_o[31] 0.000127559
5 mstream_o[30] mstream_o[32] 9.13368e-06
6 mstream_o[29] mstream_o[30] 6.02055e-05
7 *2:13 *43:10 0
*RES
1 *1852:Q *43:10 48.4339 
2 *43:10 mstream_o[30] 3.14347 
*END

*D_NET *44 0.000872815
*CONN
*P mstream_o[31] O
*I *1853:Q O *D sky130_fd_sc_hd__dfrtp_4
*CAP
1 mstream_o[31] 0.000251915
2 *1853:Q 0.000251915
3 mstream_o[31] mstream_o[32] 0.000175951
4 busy_o mstream_o[31] 6.54744e-05
5 mstream_o[30] mstream_o[31] 0.000127559
*RES
1 *1853:Q mstream_o[31] 48.4875 
*END

*D_NET *45 0.0025642
*CONN
*P mstream_o[32] O
*I *1854:Q O *D sky130_fd_sc_hd__dfrtp_4
*CAP
1 mstream_o[32] 0.000342528
2 *1854:Q 0.000819365
3 *45:10 0.00116189
4 mstream_o[32] mstream_o[33] 3.22181e-05
5 busy_o *45:10 2.31116e-05
6 mstream_o[30] mstream_o[32] 9.13368e-06
7 mstream_o[31] mstream_o[32] 0.000175951
*RES
1 *1854:Q *45:10 49.9004 
2 *45:10 mstream_o[32] 9.2096 
*END

*D_NET *46 0.00223312
*CONN
*P mstream_o[33] O
*I *1855:Q O *D sky130_fd_sc_hd__dfrtp_4
*CAP
1 mstream_o[33] 0.000298741
2 *1855:Q 0.000707611
3 *46:10 0.00100635
4 mstream_o[33] mstream_o[34] 6.02055e-05
5 busy_o *46:10 0.00012799
6 mstream_o[32] mstream_o[33] 3.22181e-05
*RES
1 *1855:Q *46:10 49.8796 
2 *46:10 mstream_o[33] 8.84373 
*END

*D_NET *47 0.00277518
*CONN
*P mstream_o[34] O
*I *1856:Q O *D sky130_fd_sc_hd__dfrtp_4
*CAP
1 mstream_o[34] 0.000402539
2 *1856:Q 0.000806102
3 *47:8 0.00120864
4 mstream_o[34] mstream_o[35] 0.000141911
5 busy_o mstream_o[34] 0.000155786
6 mstream_o[33] mstream_o[34] 6.02055e-05
*RES
1 *1856:Q *47:8 49.5793 
2 *47:8 mstream_o[34] 11.1645 
*END

*D_NET *48 0.00301472
*CONN
*P mstream_o[35] O
*I *1857:Q O *D sky130_fd_sc_hd__dfrtp_4
*CAP
1 mstream_o[35] 0.000357935
2 *1857:Q 0.000956475
3 *48:12 0.00131441
4 mstream_o[35] mstream_o[36] 6.08304e-05
5 *48:12 *404:80 0
6 *48:12 *404:92 0
7 mstream_o[34] mstream_o[35] 0.000141911
8 *2:13 *48:12 0.000183164
*RES
1 *1857:Q *48:12 49.9926 
2 *48:12 mstream_o[35] 1.24133 
*END

*D_NET *49 0.00274495
*CONN
*P mstream_o[36] O
*I *1858:Q O *D sky130_fd_sc_hd__dfrtp_4
*CAP
1 mstream_o[36] 0.000398175
2 *1858:Q 0.000795038
3 *49:8 0.00119321
4 mstream_o[36] mstream_o[37] 0.000141911
5 busy_o mstream_o[36] 0.000155786
6 mstream_o[35] mstream_o[36] 6.08304e-05
*RES
1 *1858:Q *49:8 49.5793 
2 *49:8 mstream_o[36] 11.1645 
*END

*D_NET *50 0.00230768
*CONN
*P mstream_o[37] O
*I *1859:Q O *D sky130_fd_sc_hd__dfrtp_4
*CAP
1 mstream_o[37] 0.000311097
2 *1859:Q 0.000677691
3 *50:8 0.000988788
4 mstream_o[37] mstream_o[38] 6.02055e-05
5 busy_o mstream_o[37] 0.00012799
6 mstream_o[36] mstream_o[37] 0.000141911
*RES
1 *1859:Q *50:8 48.6264 
2 *50:8 mstream_o[37] 10.5734 
*END

*D_NET *51 0.00274795
*CONN
*P mstream_o[38] O
*I *1860:Q O *D sky130_fd_sc_hd__dfrtp_4
*CAP
1 mstream_o[38] 0.000402539
2 *1860:Q 0.000792486
3 *51:8 0.00119502
4 mstream_o[38] mstream_o[39] 0.000141911
5 busy_o mstream_o[38] 0.000155786
6 mstream_o[37] mstream_o[38] 6.02055e-05
*RES
1 *1860:Q *51:8 49.5793 
2 *51:8 mstream_o[38] 11.1645 
*END

*D_NET *52 0.00230768
*CONN
*P mstream_o[39] O
*I *1861:Q O *D sky130_fd_sc_hd__dfrtp_4
*CAP
1 mstream_o[39] 0.000311097
2 *1861:Q 0.000677691
3 *52:8 0.000988788
4 mstream_o[39] mstream_o[40] 6.02055e-05
5 busy_o mstream_o[39] 0.00012799
6 mstream_o[38] mstream_o[39] 0.000141911
*RES
1 *1861:Q *52:8 48.6264 
2 *52:8 mstream_o[39] 10.5734 
*END

*D_NET *53 0.00226629
*CONN
*P mstream_o[3] O
*I *1825:Q O *D sky130_fd_sc_hd__dfrtp_4
*CAP
1 mstream_o[3] 0.000186844
2 *1825:Q 0.000710447
3 *53:10 0.00089729
4 mstream_o[3] mstream_o[4] 0.000198519
5 busy_o *53:10 0.00012799
6 mstream_o[2] mstream_o[3] 0.000145195
*RES
1 *1825:Q *53:10 49.8796 
2 *53:10 mstream_o[3] 8.84373 
*END

*D_NET *54 0.00319768
*CONN
*P mstream_o[40] O
*I *1862:Q O *D sky130_fd_sc_hd__dfrtp_4
*CAP
1 mstream_o[40] 0.00137761
2 *1862:Q 0.000118533
3 *54:10 0.00149614
4 mstream_o[40] mstream_o[41] 0.000145195
5 *54:10 *404:130 0
6 *54:10 *404:137 0
7 mstream_o[39] mstream_o[40] 6.02055e-05
8 *2:13 *54:10 0
*RES
1 *1862:Q *54:10 48.0818 
2 *54:10 mstream_o[40] 3.14347 
*END

*D_NET *55 0.0022428
*CONN
*P mstream_o[41] O
*I *1863:Q O *D sky130_fd_sc_hd__dfrtp_4
*CAP
1 mstream_o[41] 0.000186844
2 *1863:Q 0.000698706
3 *55:10 0.00088555
4 mstream_o[41] mstream_o[42] 0.000198519
5 busy_o *55:10 0.00012799
6 mstream_o[40] mstream_o[41] 0.000145195
*RES
1 *1863:Q *55:10 49.4032 
2 *55:10 mstream_o[41] 8.84373 
*END

*D_NET *56 0.00247944
*CONN
*P mstream_o[42] O
*I *1864:Q O *D sky130_fd_sc_hd__dfrtp_4
*CAP
1 mstream_o[42] 0.000336309
2 *1864:Q 0.000776487
3 *56:10 0.0011128
4 mstream_o[42] mstream_o[43] 3.22181e-05
5 busy_o *56:10 2.31116e-05
6 mstream_o[41] mstream_o[42] 0.000198519
*RES
1 *1864:Q *56:10 49.9004 
2 *56:10 mstream_o[42] 9.2096 
*END

*D_NET *57 0.00230604
*CONN
*P mstream_o[43] O
*I *1865:Q O *D sky130_fd_sc_hd__dfrtp_4
*CAP
1 mstream_o[43] 0.000369743
2 *1865:Q 0.000673071
3 *57:8 0.00104281
4 mstream_o[43] mstream_o[44] 6.02055e-05
5 busy_o mstream_o[43] 0.00012799
6 mstream_o[42] mstream_o[43] 3.22181e-05
*RES
1 *1865:Q *57:8 48.6264 
2 *57:8 mstream_o[43] 10.5734 
*END

*D_NET *58 0.00274881
*CONN
*P mstream_o[44] O
*I *1866:Q O *D sky130_fd_sc_hd__dfrtp_4
*CAP
1 mstream_o[44] 0.000402539
2 *1866:Q 0.000792915
3 *58:8 0.00119545
4 mstream_o[44] mstream_o[45] 0.000141911
5 busy_o mstream_o[44] 0.000155786
6 mstream_o[43] mstream_o[44] 6.02055e-05
*RES
1 *1866:Q *58:8 49.5793 
2 *58:8 mstream_o[44] 11.1645 
*END

*D_NET *59 0.00311313
*CONN
*P mstream_o[45] O
*I *1867:Q O *D sky130_fd_sc_hd__dfrtp_4
*CAP
1 mstream_o[45] 0.00131087
2 *1867:Q 9.87403e-05
3 *59:10 0.00140961
4 mstream_o[45] mstream_o[46] 6.08304e-05
5 *59:10 *404:164 0
6 mstream_o[44] mstream_o[45] 0.000141911
7 *2:13 *59:10 9.11667e-05
*RES
1 *1867:Q *59:10 48.4339 
2 *59:10 mstream_o[45] 2.88587 
*END

*D_NET *60 0.00276836
*CONN
*P mstream_o[46] O
*I *1868:Q O *D sky130_fd_sc_hd__dfrtp_4
*CAP
1 mstream_o[46] 0.000429615
2 *1868:Q 0.00069624
3 *60:8 0.00112586
4 mstream_o[46] mstream_o[47] 0.000141911
5 *60:8 *420:DIODE 2.31687e-05
6 *60:8 *1946:A 5.41288e-05
7 *60:8 *360:10 8.17547e-05
8 busy_o mstream_o[46] 0.000154856
9 mstream_o[45] mstream_o[46] 6.08304e-05
*RES
1 *1868:Q *60:8 35.0764 
2 *60:8 mstream_o[46] 26.1645 
*END

*D_NET *61 0.00241366
*CONN
*P mstream_o[47] O
*I *1869:Q O *D sky130_fd_sc_hd__dfrtp_4
*CAP
1 mstream_o[47] 0.000313142
2 *1869:Q 0.000683465
3 *61:10 0.000996607
4 mstream_o[47] mstream_o[48] 6.02055e-05
5 *61:10 *419:DIODE 3.39928e-05
6 *61:10 *359:6 5.41288e-05
7 busy_o mstream_o[47] 0.000130212
8 mstream_o[46] mstream_o[47] 0.000141911
*RES
1 *1869:Q *61:10 48.9993 
2 *61:10 mstream_o[47] 10.5734 
*END

*D_NET *62 0.00274792
*CONN
*P mstream_o[48] O
*I *1870:Q O *D sky130_fd_sc_hd__dfrtp_4
*CAP
1 mstream_o[48] 0.000402539
2 *1870:Q 0.00079247
3 *62:8 0.00119501
4 mstream_o[48] mstream_o[49] 0.000141911
5 busy_o mstream_o[48] 0.000155786
6 mstream_o[47] mstream_o[48] 6.02055e-05
*RES
1 *1870:Q *62:8 49.5793 
2 *62:8 mstream_o[48] 11.1645 
*END

*D_NET *63 0.00215367
*CONN
*P mstream_o[49] O
*I *1871:Q O *D sky130_fd_sc_hd__dfrtp_4
*CAP
1 mstream_o[49] 0.000234126
2 *1871:Q 0.000677658
3 *63:10 0.000911784
4 mstream_o[49] mstream_o[50] 6.02055e-05
5 busy_o *63:10 0.00012799
6 mstream_o[48] mstream_o[49] 0.000141911
*RES
1 *1871:Q *63:10 49.4032 
2 *63:10 mstream_o[49] 8.84373 
*END

*D_NET *64 0.00250525
*CONN
*P mstream_o[4] O
*I *1826:Q O *D sky130_fd_sc_hd__dfrtp_4
*CAP
1 mstream_o[4] 0.000377818
2 *1826:Q 0.000730965
3 *64:8 0.00110878
4 mstream_o[4] mstream_o[5] 3.22181e-05
5 *64:8 *357:20 3.22467e-05
6 busy_o mstream_o[4] 2.47015e-05
7 mstream_o[3] mstream_o[4] 0.000198519
*RES
1 *1826:Q *64:8 35.0764 
2 *64:8 mstream_o[4] 24.5307 
*END

*D_NET *65 0.00318251
*CONN
*P mstream_o[50] O
*I *1872:Q O *D sky130_fd_sc_hd__dfrtp_4
*CAP
1 mstream_o[50] 0.0013732
2 *1872:Q 0.000115357
3 *65:10 0.00148856
4 mstream_o[50] mstream_o[51] 0.000145195
5 mstream_o[50] mstream_o[53] 0
6 *65:10 *404:164 0
7 mstream_o[49] mstream_o[50] 6.02055e-05
8 *2:13 *65:10 0
*RES
1 *1872:Q *65:10 48.0818 
2 *65:10 mstream_o[50] 3.14347 
*END

*D_NET *66 0.00218541
*CONN
*P mstream_o[51] O
*I *1873:Q O *D sky130_fd_sc_hd__dfrtp_4
*CAP
1 mstream_o[51] 0.000227287
2 *1873:Q 0.000698721
3 *66:10 0.000926009
4 mstream_o[51] mstream_o[52] 6.02055e-05
5 busy_o *66:10 0.00012799
6 mstream_o[50] mstream_o[51] 0.000145195
*RES
1 *1873:Q *66:10 49.4032 
2 *66:10 mstream_o[51] 8.84373 
*END

*D_NET *67 0.00274792
*CONN
*P mstream_o[52] O
*I *1874:Q O *D sky130_fd_sc_hd__dfrtp_4
*CAP
1 mstream_o[52] 0.000402539
2 *1874:Q 0.00079247
3 *67:8 0.00119501
4 mstream_o[52] mstream_o[53] 0.000141911
5 busy_o mstream_o[52] 0.000155786
6 mstream_o[51] mstream_o[52] 6.02055e-05
*RES
1 *1874:Q *67:8 49.5793 
2 *67:8 mstream_o[52] 11.1645 
*END

*D_NET *68 0.00277653
*CONN
*P mstream_o[53] O
*I *1875:Q O *D sky130_fd_sc_hd__dfrtp_4
*CAP
1 mstream_o[53] 0.00127924
2 *1875:Q 0.00127924
3 mstream_o[53] mstream_o[54] 6.08304e-05
4 mstream_o[53] mstream_o[55] 0
5 mstream_o[53] *404:164 0
6 mstream_o[50] mstream_o[53] 0
7 mstream_o[52] mstream_o[53] 0.000141911
8 *2:13 mstream_o[53] 1.53024e-05
*RES
1 *1875:Q mstream_o[53] 49.7719 
*END

*D_NET *69 0.00266255
*CONN
*P mstream_o[54] O
*I *1876:Q O *D sky130_fd_sc_hd__dfrtp_4
*CAP
1 mstream_o[54] 0.000398175
2 *1876:Q 0.000753834
3 *69:8 0.00115201
4 mstream_o[54] mstream_o[55] 0.000141911
5 busy_o mstream_o[54] 0.000155786
6 mstream_o[53] mstream_o[54] 6.08304e-05
*RES
1 *1876:Q *69:8 49.5793 
2 *69:8 mstream_o[54] 11.1645 
*END

*D_NET *70 0.00308191
*CONN
*P mstream_o[55] O
*I *1877:Q O *D sky130_fd_sc_hd__dfrtp_4
*CAP
1 mstream_o[55] 0.00130935
2 *1877:Q 0.00013023
3 *70:10 0.00143958
4 mstream_o[55] mstream_o[56] 6.08304e-05
5 *70:10 *404:164 0
6 mstream_o[53] mstream_o[55] 0
7 mstream_o[54] mstream_o[55] 0.000141911
8 *2:13 *70:10 0
*RES
1 *1877:Q *70:10 48.4339 
2 *70:10 mstream_o[55] 3.0576 
*END

*D_NET *71 0.00267673
*CONN
*P mstream_o[56] O
*I *1878:Q O *D sky130_fd_sc_hd__dfrtp_4
*CAP
1 mstream_o[56] 0.000398175
2 *1878:Q 0.000760928
3 *71:8 0.0011591
4 mstream_o[56] mstream_o[57] 0.000141911
5 busy_o mstream_o[56] 0.000155786
6 mstream_o[55] mstream_o[56] 6.08304e-05
*RES
1 *1878:Q *71:8 49.5793 
2 *71:8 mstream_o[56] 11.1645 
*END

*D_NET *72 0.00222542
*CONN
*P mstream_o[57] O
*I *1879:Q O *D sky130_fd_sc_hd__dfrtp_4
*CAP
1 mstream_o[57] 0.000234126
2 *1879:Q 0.000649476
3 *72:10 0.000883601
4 mstream_o[57] mstream_o[58] 6.02055e-05
5 *72:10 *356:8 0.000128106
6 busy_o *72:10 0.00012799
7 mstream_o[56] mstream_o[57] 0.000141911
*RES
1 *1879:Q *72:10 49.4032 
2 *72:10 mstream_o[57] 8.84373 
*END

*D_NET *73 0.00277629
*CONN
*P mstream_o[58] O
*I *1880:Q O *D sky130_fd_sc_hd__dfrtp_4
*CAP
1 mstream_o[58] 0.000402539
2 *1880:Q 0.000678537
3 *73:8 0.00108108
4 mstream_o[58] mstream_o[59] 0.000141911
5 *73:8 *237:8 6.73055e-05
6 busy_o mstream_o[58] 0.000155786
7 mstream_o[57] mstream_o[58] 6.02055e-05
8 *1941:A *73:8 0.000188927
*RES
1 *1880:Q *73:8 49.5793 
2 *73:8 mstream_o[58] 11.1645 
*END

*D_NET *74 0.00249902
*CONN
*P mstream_o[59] O
*I *1881:Q O *D sky130_fd_sc_hd__dfrtp_4
*CAP
1 mstream_o[59] 0.000311097
2 *1881:Q 0.000603187
3 *74:8 0.000914284
4 mstream_o[59] mstream_o[60] 6.02055e-05
5 *74:8 *447:DIODE 0.000141677
6 *74:8 *406:6 0.00010018
7 *74:8 *410:87 9.84851e-05
8 busy_o mstream_o[59] 0.00012799
9 mstream_o[58] mstream_o[59] 0.000141911
*RES
1 *1881:Q *74:8 49.1029 
2 *74:8 mstream_o[59] 10.5734 
*END

*D_NET *75 0.00213607
*CONN
*P mstream_o[5] O
*I *1827:Q O *D sky130_fd_sc_hd__dfrtp_4
*CAP
1 mstream_o[5] 0.000298741
2 *1827:Q 0.000659089
3 *75:10 0.00095783
4 mstream_o[5] mstream_o[6] 6.02055e-05
5 busy_o *75:10 0.00012799
6 mstream_o[4] mstream_o[5] 3.22181e-05
*RES
1 *1827:Q *75:10 49.4032 
2 *75:10 mstream_o[5] 8.84373 
*END

*D_NET *76 0.00323567
*CONN
*P mstream_o[60] O
*I *1882:Q O *D sky130_fd_sc_hd__dfrtp_4
*CAP
1 mstream_o[60] 0.00138947
2 *1882:Q 0.000125669
3 *76:10 0.00151513
4 mstream_o[60] mstream_o[61] 0.000145195
5 *76:10 *406:23 0
6 *76:10 *406:39 0
7 *76:10 *410:101 0
8 mstream_o[59] mstream_o[60] 6.02055e-05
*RES
1 *1882:Q *76:10 48.0818 
2 *76:10 mstream_o[60] 3.14347 
*END

*D_NET *77 0.0021299
*CONN
*P mstream_o[61] O
*I *1883:Q O *D sky130_fd_sc_hd__dfrtp_4
*CAP
1 mstream_o[61] 0.000227287
2 *1883:Q 0.000670968
3 *77:10 0.000898255
4 mstream_o[61] mstream_o[62] 6.02055e-05
5 busy_o *77:10 0.00012799
6 mstream_o[60] mstream_o[61] 0.000145195
*RES
1 *1883:Q *77:10 49.8796 
2 *77:10 mstream_o[61] 8.84373 
*END

*D_NET *78 0.00269397
*CONN
*P mstream_o[62] O
*I *1884:Q O *D sky130_fd_sc_hd__dfrtp_4
*CAP
1 mstream_o[62] 0.000409573
2 *1884:Q 0.000765637
3 *78:8 0.00117521
4 mstream_o[62] mstream_o[63] 0.000127559
5 mstream_o[62] mstream_o[64] 0
6 busy_o mstream_o[62] 0.000155786
7 mstream_o[61] mstream_o[62] 6.02055e-05
*RES
1 *1884:Q *78:8 49.5793 
2 *78:8 mstream_o[62] 11.1645 
*END

*D_NET *79 0.000719703
*CONN
*P mstream_o[63] O
*I *1885:Q O *D sky130_fd_sc_hd__dfrtp_4
*CAP
1 mstream_o[63] 0.000248351
2 *1885:Q 0.000248351
3 mstream_o[63] mstream_o[64] 5.31868e-05
4 busy_o mstream_o[63] 4.2255e-05
5 mstream_o[62] mstream_o[63] 0.000127559
*RES
1 *1885:Q mstream_o[63] 47.7832 
*END

*D_NET *80 0.00353129
*CONN
*P mstream_o[64] O
*I *1886:Q O *D sky130_fd_sc_hd__dfrtp_4
*CAP
1 mstream_o[64] 0.00044522
2 *1886:Q 0.000906031
3 *80:10 0.00135125
4 mstream_o[64] mstream_o[65] 0.000141911
5 *80:10 *1885:RESET_B 0.000479496
6 busy_o mstream_o[64] 0.000154196
7 mstream_o[62] mstream_o[64] 0
8 mstream_o[63] mstream_o[64] 5.31868e-05
*RES
1 *1886:Q *80:10 35.5736 
2 *80:10 mstream_o[64] 26.1645 
*END

*D_NET *81 0.00225839
*CONN
*P mstream_o[65] O
*I *1887:Q O *D sky130_fd_sc_hd__dfrtp_4
*CAP
1 mstream_o[65] 0.000313142
2 *1887:Q 0.000643272
3 *81:10 0.000956414
4 mstream_o[65] mstream_o[66] 6.02055e-05
5 *81:10 *361:18 1.32314e-05
6 busy_o mstream_o[65] 0.000130212
7 mstream_o[64] mstream_o[65] 0.000141911
*RES
1 *1887:Q *81:10 48.6471 
2 *81:10 mstream_o[65] 10.5734 
*END

*D_NET *82 0.00272149
*CONN
*P mstream_o[66] O
*I *1888:Q O *D sky130_fd_sc_hd__dfrtp_4
*CAP
1 mstream_o[66] 0.000402539
2 *1888:Q 0.000779253
3 *82:8 0.00118179
4 mstream_o[66] mstream_o[67] 0.000141911
5 busy_o mstream_o[66] 0.000155786
6 mstream_o[65] mstream_o[66] 6.02055e-05
*RES
1 *1888:Q *82:8 49.5793 
2 *82:8 mstream_o[66] 11.1645 
*END

*D_NET *83 0.00221898
*CONN
*P mstream_o[67] O
*I *1889:Q O *D sky130_fd_sc_hd__dfrtp_4
*CAP
1 mstream_o[67] 0.000234126
2 *1889:Q 0.00071031
3 *83:10 0.000944436
4 mstream_o[67] mstream_o[68] 6.02055e-05
5 busy_o *83:10 0.00012799
6 mstream_o[66] mstream_o[67] 0.000141911
*RES
1 *1889:Q *83:10 49.8796 
2 *83:10 mstream_o[67] 8.84373 
*END

*D_NET *84 0.00330439
*CONN
*P mstream_o[68] O
*I *1890:Q O *D sky130_fd_sc_hd__dfrtp_4
*CAP
1 mstream_o[68] 0.0014331
2 *1890:Q 0.000116398
3 *84:10 0.0015495
4 mstream_o[68] mstream_o[69] 0.000145195
5 *84:10 *406:131 0
6 *84:10 *410:101 0
7 mstream_o[67] mstream_o[68] 6.02055e-05
*RES
1 *1890:Q *84:10 48.0818 
2 *84:10 mstream_o[68] 3.14347 
*END

*D_NET *85 0.00247416
*CONN
*P mstream_o[69] O
*I *1891:Q O *D sky130_fd_sc_hd__dfrtp_4
*CAP
1 mstream_o[69] 0.000263815
2 *1891:Q 0.000615551
3 *85:12 0.000879366
4 mstream_o[69] mstream_o[70] 0.000198519
5 *85:12 *422:DIODE 0.000143543
6 *85:12 *362:6 0.00010018
7 busy_o mstream_o[69] 0.00012799
8 mstream_o[68] mstream_o[69] 0.000145195
*RES
1 *1891:Q *85:12 49.2686 
2 *85:12 mstream_o[69] 10.5734 
*END

*D_NET *86 0.00274875
*CONN
*P mstream_o[6] O
*I *1828:Q O *D sky130_fd_sc_hd__dfrtp_4
*CAP
1 mstream_o[6] 0.000402539
2 *1828:Q 0.000792885
3 *86:8 0.00119542
4 mstream_o[6] mstream_o[7] 0.000141911
5 busy_o mstream_o[6] 0.000155786
6 mstream_o[5] mstream_o[6] 6.02055e-05
*RES
1 *1828:Q *86:8 49.5793 
2 *86:8 mstream_o[6] 11.1645 
*END

*D_NET *87 0.00242581
*CONN
*P mstream_o[70] O
*I *1892:Q O *D sky130_fd_sc_hd__dfrtp_4
*CAP
1 mstream_o[70] 0.000336309
2 *1892:Q 0.000749669
3 *87:10 0.00108598
4 mstream_o[70] mstream_o[71] 3.22181e-05
5 busy_o *87:10 2.31116e-05
6 mstream_o[69] mstream_o[70] 0.000198519
*RES
1 *1892:Q *87:10 49.9004 
2 *87:10 mstream_o[70] 9.2096 
*END

*D_NET *88 0.00219931
*CONN
*P mstream_o[71] O
*I *1893:Q O *D sky130_fd_sc_hd__dfrtp_4
*CAP
1 mstream_o[71] 0.000292772
2 *1893:Q 0.000696679
3 *88:10 0.00098945
4 mstream_o[71] mstream_o[72] 6.02055e-05
5 busy_o *88:10 0.00012799
6 mstream_o[70] mstream_o[71] 3.22181e-05
*RES
1 *1893:Q *88:10 49.8796 
2 *88:10 mstream_o[71] 8.84373 
*END

*D_NET *89 0.00271145
*CONN
*P mstream_o[72] O
*I *1894:Q O *D sky130_fd_sc_hd__dfrtp_4
*CAP
1 mstream_o[72] 0.000402539
2 *1894:Q 0.000774237
3 *89:8 0.00117678
4 mstream_o[72] mstream_o[73] 0.000141911
5 busy_o mstream_o[72] 0.000155786
6 mstream_o[71] mstream_o[72] 6.02055e-05
*RES
1 *1894:Q *89:8 49.5793 
2 *89:8 mstream_o[72] 11.1645 
*END

*D_NET *90 0.0030267
*CONN
*P mstream_o[73] O
*I *1895:Q O *D sky130_fd_sc_hd__dfrtp_4
*CAP
1 mstream_o[73] 0.00126507
2 *1895:Q 0.000103204
3 *90:10 0.00136828
4 mstream_o[73] mstream_o[74] 6.08304e-05
5 *90:10 *406:174 8.74016e-05
6 *90:10 *410:121 0
7 mstream_o[72] mstream_o[73] 0.000141911
*RES
1 *1895:Q *90:10 48.4339 
2 *90:10 mstream_o[73] 2.97173 
*END

*D_NET *91 0.00270842
*CONN
*P mstream_o[74] O
*I *1896:Q O *D sky130_fd_sc_hd__dfrtp_4
*CAP
1 mstream_o[74] 0.000398175
2 *1896:Q 0.000776773
3 *91:8 0.00117495
4 mstream_o[74] mstream_o[75] 0.000141911
5 busy_o mstream_o[74] 0.000155786
6 mstream_o[73] mstream_o[74] 6.08304e-05
*RES
1 *1896:Q *91:8 49.5793 
2 *91:8 mstream_o[74] 11.1645 
*END

*D_NET *92 0.00214962
*CONN
*P mstream_o[75] O
*I *1897:Q O *D sky130_fd_sc_hd__dfrtp_4
*CAP
1 mstream_o[75] 0.000234126
2 *1897:Q 0.000675631
3 *92:10 0.000909756
4 mstream_o[75] mstream_o[76] 6.02055e-05
5 busy_o *92:10 0.00012799
6 mstream_o[74] mstream_o[75] 0.000141911
*RES
1 *1897:Q *92:10 49.8796 
2 *92:10 mstream_o[75] 8.84373 
*END

*D_NET *93 0.00271145
*CONN
*P mstream_o[76] O
*I *1898:Q O *D sky130_fd_sc_hd__dfrtp_4
*CAP
1 mstream_o[76] 0.000402539
2 *1898:Q 0.000774237
3 *93:8 0.00117678
4 mstream_o[76] mstream_o[77] 0.000141911
5 busy_o mstream_o[76] 0.000155786
6 mstream_o[75] mstream_o[76] 6.02055e-05
*RES
1 *1898:Q *93:8 49.5793 
2 *93:8 mstream_o[76] 11.1645 
*END

*D_NET *94 0.00220091
*CONN
*P mstream_o[77] O
*I *1899:Q O *D sky130_fd_sc_hd__dfrtp_4
*CAP
1 mstream_o[77] 0.000311097
2 *1899:Q 0.000624306
3 *94:8 0.000935403
4 mstream_o[77] mstream_o[78] 6.02055e-05
5 busy_o mstream_o[77] 0.00012799
6 mstream_o[76] mstream_o[77] 0.000141911
*RES
1 *1899:Q *94:8 48.6264 
2 *94:8 mstream_o[77] 10.5734 
*END

*D_NET *95 0.00324601
*CONN
*P mstream_o[78] O
*I *1900:Q O *D sky130_fd_sc_hd__dfrtp_4
*CAP
1 mstream_o[78] 0.00138947
2 *1900:Q 0.000106423
3 *95:10 0.00149589
4 mstream_o[78] mstream_o[79] 0.000145195
5 *95:10 *406:174 4.88217e-05
6 *95:10 *410:121 0
7 mstream_o[77] mstream_o[78] 6.02055e-05
*RES
1 *1900:Q *95:10 48.0818 
2 *95:10 mstream_o[78] 3.14347 
*END

*D_NET *96 0.00228391
*CONN
*P mstream_o[79] O
*I *1901:Q O *D sky130_fd_sc_hd__dfrtp_4
*CAP
1 mstream_o[79] 0.000304259
2 *1901:Q 0.000671
3 *96:8 0.000975259
4 mstream_o[79] mstream_o[80] 6.02055e-05
5 busy_o mstream_o[79] 0.00012799
6 mstream_o[78] mstream_o[79] 0.000145195
*RES
1 *1901:Q *96:8 49.1029 
2 *96:8 mstream_o[79] 10.5734 
*END

*D_NET *97 0.00300798
*CONN
*P mstream_o[7] O
*I *1829:Q O *D sky130_fd_sc_hd__dfrtp_4
*CAP
1 mstream_o[7] 0.0012435
2 *1829:Q 6.60454e-05
3 *97:10 0.00130954
4 mstream_o[7] mstream_o[8] 6.08304e-05
5 *97:10 *357:20 9.4987e-05
6 mstream_o[6] mstream_o[7] 0.000141911
7 *2:13 *97:10 9.11667e-05
*RES
1 *1829:Q *97:10 48.4339 
2 *97:10 mstream_o[7] 2.88587 
*END

*D_NET *98 0.00269425
*CONN
*P mstream_o[80] O
*I *1902:Q O *D sky130_fd_sc_hd__dfrtp_4
*CAP
1 mstream_o[80] 0.000402539
2 *1902:Q 0.000765637
3 *98:8 0.00116818
4 mstream_o[80] mstream_o[81] 0.000141911
5 busy_o mstream_o[80] 0.000155786
6 mstream_o[79] mstream_o[80] 6.02055e-05
*RES
1 *1902:Q *98:8 49.5793 
2 *98:8 mstream_o[80] 11.1645 
*END

*D_NET *99 0.00220104
*CONN
*P mstream_o[81] O
*I *1903:Q O *D sky130_fd_sc_hd__dfrtp_4
*CAP
1 mstream_o[81] 0.000234126
2 *1903:Q 0.000701341
3 *99:10 0.000935467
4 mstream_o[81] mstream_o[82] 6.02055e-05
5 busy_o *99:10 0.00012799
6 mstream_o[80] mstream_o[81] 0.000141911
*RES
1 *1903:Q *99:10 49.8796 
2 *99:10 mstream_o[81] 8.84373 
*END

*D_NET *100 0.00262613
*CONN
*P mstream_o[82] O
*I *1904:Q O *D sky130_fd_sc_hd__dfrtp_4
*CAP
1 mstream_o[82] 0.000402539
2 *1904:Q 0.000731575
3 *100:8 0.00113411
4 mstream_o[82] mstream_o[83] 0.000141911
5 busy_o mstream_o[82] 0.000155786
6 mstream_o[81] mstream_o[82] 6.02055e-05
*RES
1 *1904:Q *100:8 49.5793 
2 *100:8 mstream_o[82] 11.1645 
*END

*D_NET *101 0.00293643
*CONN
*P mstream_o[83] O
*I *1905:Q O *D sky130_fd_sc_hd__dfrtp_4
*CAP
1 mstream_o[83] 0.00123662
2 *1905:Q 0.00013023
3 *101:10 0.00136685
4 mstream_o[83] mstream_o[84] 6.08304e-05
5 *101:10 *406:182 0
6 *101:10 *410:121 0
7 mstream_o[82] mstream_o[83] 0.000141911
*RES
1 *1905:Q *101:10 48.4339 
2 *101:10 mstream_o[83] 2.88587 
*END

*D_NET *102 0.0026231
*CONN
*P mstream_o[84] O
*I *1906:Q O *D sky130_fd_sc_hd__dfrtp_4
*CAP
1 mstream_o[84] 0.000398175
2 *1906:Q 0.000734111
3 *102:8 0.00113229
4 mstream_o[84] mstream_o[85] 0.000141911
5 busy_o mstream_o[84] 0.000155786
6 mstream_o[83] mstream_o[84] 6.08304e-05
*RES
1 *1906:Q *102:8 49.5793 
2 *102:8 mstream_o[84] 11.1645 
*END

*D_NET *103 0.00220104
*CONN
*P mstream_o[85] O
*I *1907:Q O *D sky130_fd_sc_hd__dfrtp_4
*CAP
1 mstream_o[85] 0.000234126
2 *1907:Q 0.000701341
3 *103:10 0.000935467
4 mstream_o[85] mstream_o[86] 6.02055e-05
5 busy_o *103:10 0.00012799
6 mstream_o[84] mstream_o[85] 0.000141911
*RES
1 *1907:Q *103:10 49.8796 
2 *103:10 mstream_o[85] 8.84373 
*END

*D_NET *104 0.00269425
*CONN
*P mstream_o[86] O
*I *1908:Q O *D sky130_fd_sc_hd__dfrtp_4
*CAP
1 mstream_o[86] 0.000402539
2 *1908:Q 0.000765637
3 *104:8 0.00116818
4 mstream_o[86] mstream_o[87] 0.000141911
5 busy_o mstream_o[86] 0.000155786
6 mstream_o[85] mstream_o[86] 6.02055e-05
*RES
1 *1908:Q *104:8 49.5793 
2 *104:8 mstream_o[86] 11.1645 
*END

*D_NET *105 0.00245336
*CONN
*P mstream_o[87] O
*I *1909:Q O *D sky130_fd_sc_hd__dfrtp_4
*CAP
1 mstream_o[87] 0.000234126
2 *1909:Q 0.000518341
3 *105:10 0.000752466
4 mstream_o[87] mstream_o[88] 6.02055e-05
5 *105:10 *449:DIODE 0.00036023
6 *105:10 *1994:A 0.000233359
7 *105:10 *408:6 2.4732e-05
8 busy_o *105:10 0.00012799
9 mstream_o[86] mstream_o[87] 0.000141911
*RES
1 *1909:Q *105:10 49.4032 
2 *105:10 mstream_o[87] 8.84373 
*END

*D_NET *106 0.00319074
*CONN
*P mstream_o[88] O
*I *1910:Q O *D sky130_fd_sc_hd__dfrtp_4
*CAP
1 mstream_o[88] 0.00137346
2 *1910:Q 0.000119213
3 *106:10 0.00149267
4 mstream_o[88] mstream_o[89] 0.000145195
5 mstream_o[88] mstream_o[91] 0
6 *106:10 *410:139 0
7 mstream_o[87] mstream_o[88] 6.02055e-05
*RES
1 *1910:Q *106:10 48.0818 
2 *106:10 mstream_o[88] 3.14347 
*END

*D_NET *107 0.0021299
*CONN
*P mstream_o[89] O
*I *1911:Q O *D sky130_fd_sc_hd__dfrtp_4
*CAP
1 mstream_o[89] 0.000227287
2 *1911:Q 0.000670968
3 *107:10 0.000898255
4 mstream_o[89] mstream_o[90] 6.02055e-05
5 busy_o *107:10 0.00012799
6 mstream_o[88] mstream_o[89] 0.000145195
*RES
1 *1911:Q *107:10 49.8796 
2 *107:10 mstream_o[89] 8.84373 
*END

*D_NET *108 0.00274572
*CONN
*P mstream_o[8] O
*I *1830:Q O *D sky130_fd_sc_hd__dfrtp_4
*CAP
1 mstream_o[8] 0.000398175
2 *1830:Q 0.000795421
3 *108:8 0.0011936
4 mstream_o[8] mstream_o[9] 0.000141911
5 busy_o mstream_o[8] 0.000155786
6 mstream_o[7] mstream_o[8] 6.08304e-05
*RES
1 *1830:Q *108:8 49.5793 
2 *108:8 mstream_o[8] 11.1645 
*END

*D_NET *109 0.00269425
*CONN
*P mstream_o[90] O
*I *1912:Q O *D sky130_fd_sc_hd__dfrtp_4
*CAP
1 mstream_o[90] 0.000402539
2 *1912:Q 0.000765637
3 *109:8 0.00116818
4 mstream_o[90] mstream_o[91] 0.000141911
5 busy_o mstream_o[90] 0.000155786
6 mstream_o[89] mstream_o[90] 6.02055e-05
*RES
1 *1912:Q *109:8 49.5793 
2 *109:8 mstream_o[90] 11.1645 
*END

*D_NET *110 0.002587
*CONN
*P mstream_o[91] O
*I *1913:Q O *D sky130_fd_sc_hd__dfrtp_4
*CAP
1 mstream_o[91] 0.00119213
2 *1913:Q 0.00119213
3 mstream_o[91] mstream_o[92] 6.08304e-05
4 mstream_o[91] mstream_o[93] 0
5 mstream_o[91] *408:81 0
6 mstream_o[91] *410:139 0
7 mstream_o[88] mstream_o[91] 0
8 mstream_o[90] mstream_o[91] 0.000141911
*RES
1 *1913:Q mstream_o[91] 49.6001 
*END

*D_NET *111 0.00267855
*CONN
*P mstream_o[92] O
*I *1914:Q O *D sky130_fd_sc_hd__dfrtp_4
*CAP
1 mstream_o[92] 0.000398175
2 *1914:Q 0.000761837
3 *111:8 0.00116001
4 mstream_o[92] mstream_o[93] 0.000141911
5 busy_o mstream_o[92] 0.000155786
6 mstream_o[91] mstream_o[92] 6.08304e-05
*RES
1 *1914:Q *111:8 49.5793 
2 *111:8 mstream_o[92] 11.1645 
*END

*D_NET *112 0.00287416
*CONN
*P mstream_o[93] O
*I *1915:Q O *D sky130_fd_sc_hd__dfrtp_4
*CAP
1 mstream_o[93] 0.0012023
2 *1915:Q 0.000133406
3 *112:10 0.00133571
4 mstream_o[93] mstream_o[94] 6.08304e-05
5 mstream_o[93] mstream_o[96] 0
6 *112:10 *408:105 0
7 *112:10 *408:117 0
8 *112:10 *410:139 0
9 mstream_o[91] mstream_o[93] 0
10 mstream_o[92] mstream_o[93] 0.000141911
*RES
1 *1915:Q *112:10 48.4339 
2 *112:10 mstream_o[93] 2.88587 
*END

*D_NET *113 0.00268835
*CONN
*P mstream_o[94] O
*I *1916:Q O *D sky130_fd_sc_hd__dfrtp_4
*CAP
1 mstream_o[94] 0.000400533
2 *1916:Q 0.000768173
3 *113:8 0.00116871
4 mstream_o[94] mstream_o[95] 0.000127559
5 mstream_o[94] mstream_o[96] 6.76174e-06
6 busy_o mstream_o[94] 0.000155786
7 mstream_o[93] mstream_o[94] 6.08304e-05
*RES
1 *1916:Q *113:8 49.5793 
2 *113:8 mstream_o[94] 11.1645 
*END

*D_NET *114 0.000761511
*CONN
*P mstream_o[95] O
*I *1917:Q O *D sky130_fd_sc_hd__dfrtp_4
*CAP
1 mstream_o[95] 0.000207547
2 *1917:Q 0.000207547
3 mstream_o[95] mstream_o[96] 0.000176603
4 busy_o mstream_o[95] 4.2255e-05
5 mstream_o[94] mstream_o[95] 0.000127559
*RES
1 *1917:Q mstream_o[95] 47.7832 
*END

*D_NET *115 0.00311571
*CONN
*P mstream_o[96] O
*I *1918:Q O *D sky130_fd_sc_hd__dfrtp_4
*CAP
1 mstream_o[96] 0.00144727
2 *1918:Q 0.00144727
3 mstream_o[96] mstream_o[97] 3.22181e-05
4 mstream_o[96] *371:86 5.58152e-06
5 mstream_o[96] *408:117 0
6 mstream_o[93] mstream_o[96] 0
7 mstream_o[94] mstream_o[96] 6.76174e-06
8 mstream_o[95] mstream_o[96] 0.000176603
*RES
1 *1918:Q mstream_o[96] 49.5915 
*END

*D_NET *116 0.00227201
*CONN
*P mstream_o[97] O
*I *1919:Q O *D sky130_fd_sc_hd__dfrtp_4
*CAP
1 mstream_o[97] 0.00028079
2 *1919:Q 0.000666275
3 *116:10 0.000947065
4 mstream_o[97] mstream_o[98] 0.000220287
5 *116:10 *356:126 0
6 mstream_o[96] mstream_o[97] 3.22181e-05
7 *1:16 *116:10 0.000125378
*RES
1 *1919:Q *116:10 49.4032 
2 *116:10 mstream_o[97] 8.9296 
*END

*D_NET *117 0.00247689
*CONN
*P mstream_o[98] O
*I *1920:Q O *D sky130_fd_sc_hd__dfrtp_4
*CAP
1 mstream_o[98] 0.000366031
2 *1920:Q 0.000735608
3 *117:10 0.00110164
4 mstream_o[98] mstream_o[99] 3.22181e-05
5 *117:10 *356:126 0
6 mstream_o[97] mstream_o[98] 0.000220287
7 *1:16 *117:10 2.11066e-05
*RES
1 *1920:Q *117:10 49.4239 
2 *117:10 mstream_o[98] 9.29547 
*END

*D_NET *118 0.00218664
*CONN
*P mstream_o[99] O
*I *1921:Q O *D sky130_fd_sc_hd__dfrtp_4
*CAP
1 mstream_o[99] 0.000326605
2 *1921:Q 0.000576647
3 *118:10 0.000903252
4 *118:10 *356:130 0.000156078
5 *118:10 *356:158 0
6 mstream_o[100] mstream_o[99] 6.64604e-05
7 mstream_o[98] mstream_o[99] 3.22181e-05
8 *1:16 *118:10 0.000125378
*RES
1 *1921:Q *118:10 49.4032 
2 *118:10 mstream_o[99] 8.9296 
*END

*D_NET *119 0.00227987
*CONN
*P mstream_o[9] O
*I *1831:Q O *D sky130_fd_sc_hd__dfrtp_4
*CAP
1 mstream_o[9] 0.000311097
2 *1831:Q 0.000663785
3 *119:8 0.000974882
4 busy_o mstream_o[9] 0.00012799
5 mstream_o[10] mstream_o[9] 6.02055e-05
6 mstream_o[8] mstream_o[9] 0.000141911
*RES
1 *1831:Q *119:8 48.6264 
2 *119:8 mstream_o[9] 10.5734 
*END

*D_NET *120 0.00502904
*CONN
*P nrst_i I
*I *1996:A I *D sky130_fd_sc_hd__buf_4
*CAP
1 nrst_i 0.00131301
2 *1996:A 0
3 *120:21 0.000901127
4 *120:17 0.00221414
5 *2:13 *120:21 0.000600765
*RES
1 nrst_i *120:17 41.7836 
2 *120:17 *120:21 37.6821 
3 *120:21 *1996:A 38 
*END

*D_NET *121 0.00136416
*CONN
*P sstream_i[0] I
*I *1708:D_N I *D sky130_fd_sc_hd__nor4b_1
*CAP
1 sstream_i[0] 0.000512809
2 *1708:D_N 0
3 *121:13 0.000512809
4 *121:13 *148:13 0.000100024
5 *121:13 *159:17 0.000238518
*RES
1 sstream_i[0] *121:13 31.5982 
2 *121:13 *1708:D_N 23 
*END

*D_NET *122 0.00252905
*CONN
*P sstream_i[100] I
*I *1805:D_N I *D sky130_fd_sc_hd__nor4b_1
*CAP
1 sstream_i[100] 0.000928005
2 *1805:D_N 0
3 *122:15 0.000928005
4 *122:15 *1805:A 0.000217366
5 *122:15 *1805:B 6.70361e-05
6 *122:15 *123:13 0.000100024
7 *122:15 *235:19 0.000100024
8 *122:15 *356:147 1.9771e-05
9 *122:15 *363:10 0.000168817
*RES
1 sstream_i[100] *122:15 37.9545 
2 *122:15 *1805:D_N 23 
*END

*D_NET *123 0.00183705
*CONN
*P sstream_i[101] I
*I *1806:D_N I *D sky130_fd_sc_hd__nor4b_1
*CAP
1 sstream_i[101] 0.000640047
2 *1806:D_N 0
3 *123:13 0.000640047
4 *123:13 *1985:A 0.000113589
5 *123:13 *124:13 9.90348e-05
6 *123:13 *389:6 5.25626e-05
7 *123:13 *390:195 9.5877e-05
8 *123:13 *390:208 9.58714e-05
9 *122:15 *123:13 0.000100024
*RES
1 sstream_i[101] *123:13 34.3709 
2 *123:13 *1806:D_N 23 
*END

*D_NET *124 0.00240039
*CONN
*P sstream_i[102] I
*I *1807:D_N I *D sky130_fd_sc_hd__nor4b_1
*CAP
1 sstream_i[102] 0.000766037
2 *1807:D_N 0
3 *124:13 0.000766037
4 *124:13 *1807:A 0.00017761
5 *124:13 *1807:B 0.000136743
6 *124:13 *125:13 0.000100024
7 *124:13 *414:138 0.000114656
8 *124:13 *416:39 0.000199911
9 *124:13 *416:52 4.03352e-05
10 *123:13 *124:13 9.90348e-05
*RES
1 sstream_i[102] *124:13 36.7531 
2 *124:13 *1807:D_N 23 
*END

*D_NET *125 0.00163872
*CONN
*P sstream_i[103] I
*I *1808:D_N I *D sky130_fd_sc_hd__nor4b_1
*CAP
1 sstream_i[103] 0.000719338
2 *1808:D_N 0
3 *125:13 0.000719338
4 *125:13 *126:15 0.000100024
5 *124:13 *125:13 0.000100024
*RES
1 sstream_i[103] *125:13 34.3709 
2 *125:13 *1808:D_N 23 
*END

*D_NET *126 0.00421508
*CONN
*P sstream_i[104] I
*I *1809:D_N I *D sky130_fd_sc_hd__nor4b_1
*CAP
1 sstream_i[104] 0.00145605
2 *1809:D_N 0
3 *126:15 0.00145605
4 *126:15 *127:13 0.000100024
5 *126:15 *237:16 0.00060512
6 *126:15 *245:10 0.000298267
7 *126:15 *370:64 0
8 *126:15 *399:55 0.000195318
9 *126:15 *399:82 4.21594e-06
10 *125:13 *126:15 0.000100024
*RES
1 sstream_i[104] *126:15 34.2527 
2 *126:15 *1809:D_N 23 
*END

*D_NET *127 0.00164167
*CONN
*P sstream_i[105] I
*I *1810:D_N I *D sky130_fd_sc_hd__nor4b_1
*CAP
1 sstream_i[105] 0.000717053
2 *1810:D_N 0
3 *127:13 0.000717053
4 *127:13 *128:19 0.000100024
5 *127:13 *399:74 7.51453e-06
6 *126:15 *127:13 0.000100024
*RES
1 sstream_i[105] *127:13 34.3709 
2 *127:13 *1810:D_N 23 
*END

*D_NET *128 0.00362892
*CONN
*P sstream_i[106] I
*I *1811:D_N I *D sky130_fd_sc_hd__nor4b_1
*CAP
1 sstream_i[106] 0.0013294
2 *1811:D_N 0
3 *128:19 0.0013294
4 *128:19 *1809:A 0.000331943
5 *128:19 *1811:A 5.15096e-05
6 *128:19 *129:13 0.000100024
7 *128:19 *131:19 0
8 *128:19 *237:16 0.000386614
9 *127:13 *128:19 0.000100024
*RES
1 sstream_i[106] *128:19 31.5476 
2 *128:19 *1811:D_N 23 
*END

*D_NET *129 0.00171524
*CONN
*P sstream_i[107] I
*I *1812:D_N I *D sky130_fd_sc_hd__nor4b_1
*CAP
1 sstream_i[107] 0.000729777
2 *1812:D_N 0
3 *129:13 0.000729777
4 *129:13 *130:13 0.000100024
5 *129:13 *399:92 5.56356e-05
6 *128:19 *129:13 0.000100024
*RES
1 sstream_i[107] *129:13 34.3709 
2 *129:13 *1812:D_N 23 
*END

*D_NET *130 0.00142496
*CONN
*P sstream_i[108] I
*I *1813:D_N I *D sky130_fd_sc_hd__nor4b_1
*CAP
1 sstream_i[108] 0.000612953
2 *1813:D_N 0
3 *130:13 0.000612953
4 *130:13 *131:19 9.90348e-05
5 *129:13 *130:13 0.000100024
*RES
1 sstream_i[108] *130:13 31.9888 
2 *130:13 *1813:D_N 23 
*END

*D_NET *131 0.00215446
*CONN
*P sstream_i[109] I
*I *1814:D_N I *D sky130_fd_sc_hd__nor4b_1
*CAP
1 sstream_i[109] 0.000870995
2 *1814:D_N 0
3 *131:19 0.000870995
4 *131:19 *133:13 0.000100024
5 *131:19 *134:15 0
6 *131:19 *414:144 6.89129e-05
7 *131:19 *415:126 0.000144501
8 *128:19 *131:19 0
9 *130:13 *131:19 9.90348e-05
*RES
1 sstream_i[109] *131:19 28.9475 
2 *131:19 *1814:D_N 23 
*END

*D_NET *132 0.00141304
*CONN
*P sstream_i[10] I
*I *1718:D_N I *D sky130_fd_sc_hd__nor4b_1
*CAP
1 sstream_i[10] 0.000594864
2 *1718:D_N 0
3 *132:13 0.000594864
4 *132:13 *139:17 0.000110054
5 *132:13 *236:13 0.000100024
6 *132:13 *391:20 1.32314e-05
*RES
1 sstream_i[10] *132:13 31.5982 
2 *132:13 *1718:D_N 23 
*END

*D_NET *133 0.00216687
*CONN
*P sstream_i[110] I
*I *1815:D_N I *D sky130_fd_sc_hd__nor4b_1
*CAP
1 sstream_i[110] 0.000866726
2 *1815:D_N 0
3 *133:13 0.000866726
4 *133:13 *1815:A 4.44329e-05
5 *133:13 *134:15 0.000100024
6 *133:13 *415:126 0.000188934
7 *131:19 *133:13 0.000100024
*RES
1 sstream_i[110] *133:13 37.1881 
2 *133:13 *1815:D_N 23 
*END

*D_NET *134 0.00331879
*CONN
*P sstream_i[111] I
*I *1816:D_N I *D sky130_fd_sc_hd__nor4b_1
*CAP
1 sstream_i[111] 0.00144143
2 *1816:D_N 0
3 *134:15 0.00144143
4 *134:15 *135:13 9.90348e-05
5 *134:15 *137:17 0
6 *134:15 *237:16 0.000229305
7 *134:15 *370:90 0
8 *134:15 *370:101 0
9 *134:15 *399:126 7.57281e-06
10 *131:19 *134:15 0
11 *133:13 *134:15 0.000100024
*RES
1 sstream_i[111] *134:15 29.1958 
2 *134:15 *1816:D_N 23 
*END

*D_NET *135 0.00139239
*CONN
*P sstream_i[112] I
*I *1817:D_N I *D sky130_fd_sc_hd__nor4b_1
*CAP
1 sstream_i[112] 0.000596666
2 *1817:D_N 0
3 *135:13 0.000596666
4 *135:13 *136:13 0.000100024
5 *134:15 *135:13 9.90348e-05
*RES
1 sstream_i[112] *135:13 31.9888 
2 *135:13 *1817:D_N 23 
*END

*D_NET *136 0.00194687
*CONN
*P sstream_i[113] I
*I *1818:D_N I *D sky130_fd_sc_hd__nor4b_1
*CAP
1 sstream_i[113] 0.000575816
2 *1818:D_N 0
3 *136:13 0.000575816
4 *136:13 *137:17 9.90348e-05
5 *136:13 *398:191 0.000319375
6 *136:13 *414:165 0.000276807
7 *135:13 *136:13 0.000100024
*RES
1 sstream_i[113] *136:13 34.3709 
2 *136:13 *1818:D_N 23 
*END

*D_NET *137 0.00743421
*CONN
*P sstream_i[114] I
*I *1819:D_N I *D sky130_fd_sc_hd__nor4b_1
*I *1821:A I *D sky130_fd_sc_hd__or2_4
*CAP
1 sstream_i[114] 0.00158729
2 *1819:D_N 0
3 *1821:A 0
4 *137:31 0.0011189
5 *137:17 0.0027062
6 *137:17 sstream_o 4.57745e-06
7 *137:17 *138:13 0.000100024
8 *137:17 *388:218 0.000599863
9 *137:17 *389:120 6.29958e-05
10 *137:17 *399:141 0.000158796
11 *137:17 *414:165 0
12 *137:17 *415:126 0
13 *137:17 *415:134 3.43083e-05
14 *137:31 *1814:C 9.41704e-05
15 *137:31 *1931:CLK 9.84851e-05
16 *137:31 *1931:RESET_B 3.98653e-05
17 *137:31 *250:10 0.000120535
18 *137:31 *388:193 0.000227828
19 *137:31 *388:218 1.12863e-05
20 *137:31 *389:120 0.000157964
21 *137:31 *414:144 0
22 *137:31 *415:126 1.3523e-05
23 *1821:B *137:31 5.50106e-05
24 *14:10 *137:31 0.000143543
25 *134:15 *137:17 0
26 *136:13 *137:17 9.90348e-05
*RES
1 sstream_i[114] *137:17 19.5004 
2 *137:17 *137:31 36.7914 
3 *137:31 *1821:A 23 
4 *137:17 *1819:D_N 38 
*END

*D_NET *138 0.00215391
*CONN
*P sstream_i[115] I
*I *1820:D_N I *D sky130_fd_sc_hd__nor4b_1
*CAP
1 sstream_i[115] 0.000886012
2 *1820:D_N 0
3 *138:13 0.000886012
4 *138:13 sstream_o 9.90348e-05
5 *138:13 *414:173 0.000182832
6 *137:17 *138:13 0.000100024
*RES
1 sstream_i[115] *138:13 37.4574 
2 *138:13 *1820:D_N 23 
*END

*D_NET *139 0.00410605
*CONN
*P sstream_i[11] I
*I *1719:D_N I *D sky130_fd_sc_hd__nor4b_1
*CAP
1 sstream_i[11] 0.00155993
2 *1719:D_N 0
3 *139:17 0.00155993
4 *139:17 *1719:B 9.84851e-05
5 *139:17 *140:13 0.000155118
6 *139:17 *140:21 4.97925e-05
7 *139:17 *225:17 0
8 *139:17 *381:52 4.98707e-05
9 *139:17 *381:54 7.03421e-05
10 *139:17 *381:56 2.76611e-06
11 *139:17 *391:33 0.000176135
12 *139:17 *391:39 0.000273623
13 *132:13 *139:17 0.000110054
*RES
1 sstream_i[11] *139:17 33.066 
2 *139:17 *1719:D_N 23 
*END

*D_NET *140 0.00274536
*CONN
*P sstream_i[12] I
*I *1720:D_N I *D sky130_fd_sc_hd__nor4b_1
*CAP
1 sstream_i[12] 0.000986485
2 *1720:D_N 0
3 *140:21 0.000123063
4 *140:13 0.00110955
5 *140:13 *141:15 0.000111043
6 *140:13 *142:17 0
7 *140:13 *391:20 0
8 *140:21 *1720:B 5.67058e-05
9 *140:21 *1720:C 2.93845e-05
10 *140:21 *381:50 7.16593e-05
11 *140:21 *381:52 1.61305e-05
12 *140:21 *382:33 3.22819e-05
13 *140:21 *391:33 4.15283e-06
14 *139:17 *140:13 0.000155118
15 *139:17 *140:21 4.97925e-05
*RES
1 sstream_i[12] *140:13 35.7324 
2 *140:13 *140:21 33.2314 
3 *140:21 *1720:D_N 23 
*END

*D_NET *141 0.00149321
*CONN
*P sstream_i[13] I
*I *1721:D_N I *D sky130_fd_sc_hd__nor4b_1
*CAP
1 sstream_i[13] 0.000629837
2 *1721:D_N 0
3 *141:15 0.000629837
4 *141:15 *142:17 0.000110054
5 *141:15 *381:28 1.24376e-05
6 *140:13 *141:15 0.000111043
*RES
1 sstream_i[13] *141:15 32.4475 
2 *141:15 *1721:D_N 23 
*END

*D_NET *142 0.00362743
*CONN
*P sstream_i[14] I
*I *1722:D_N I *D sky130_fd_sc_hd__nor4b_1
*CAP
1 sstream_i[14] 0.0012158
2 *1722:D_N 0
3 *142:17 0.0012158
4 *142:17 *1723:D_N 0.00026018
5 *142:17 *260:10 0
6 *142:17 *358:20 0.000141869
7 *142:17 *381:14 0.000389742
8 *142:17 *381:46 0.00010018
9 *142:17 *382:14 9.53179e-05
10 *142:17 *382:20 9.84851e-05
11 *140:13 *142:17 0
12 *141:15 *142:17 0.000110054
*RES
1 sstream_i[14] *142:17 32.2348 
2 *142:17 *1722:D_N 23 
*END

*D_NET *143 0.00207668
*CONN
*P sstream_i[15] I
*I *1723:D_N I *D sky130_fd_sc_hd__nor4b_1
*CAP
1 sstream_i[15] 0.000850437
2 *1723:D_N 0.000850437
3 *1723:D_N *144:13 0.00010434
4 *1723:D_N *381:14 0
5 *1723:D_N *391:10 0
6 *1723:D_N *392:65 1.12863e-05
7 *142:17 *1723:D_N 0.00026018
*RES
1 sstream_i[15] *1723:D_N 49.3015 
*END

*D_NET *144 0.00152335
*CONN
*P sstream_i[16] I
*I *1724:D_N I *D sky130_fd_sc_hd__nor4b_1
*CAP
1 sstream_i[16] 0.000471713
2 *1724:D_N 0
3 *144:13 0.000471713
4 *144:13 *145:19 0.000475585
5 *1723:D_N *144:13 0.00010434
*RES
1 sstream_i[16] *144:13 31.9888 
2 *144:13 *1724:D_N 23 
*END

*D_NET *145 0.00273145
*CONN
*P sstream_i[17] I
*I *1725:D_N I *D sky130_fd_sc_hd__nor4b_1
*CAP
1 sstream_i[17] 0.000730208
2 *1725:D_N 0
3 *145:19 0.000730208
4 *145:19 *1724:A 0.000166877
5 *145:19 *1725:B 0.000122599
6 *145:19 *146:13 9.90348e-05
7 *145:19 *383:37 0
8 *145:19 *383:45 0.000231039
9 *145:19 *392:46 0.000175903
10 *144:13 *145:19 0.000475585
*RES
1 sstream_i[17] *145:19 37.8924 
2 *145:19 *1725:D_N 23 
*END

*D_NET *146 0.00212869
*CONN
*P sstream_i[18] I
*I *1726:D_N I *D sky130_fd_sc_hd__nor4b_1
*CAP
1 sstream_i[18] 0.000875701
2 *1726:D_N 0
3 *146:13 0.000875701
4 *146:13 *147:13 0.000100024
5 *146:13 *392:36 0.000178227
6 *145:19 *146:13 9.90348e-05
*RES
1 sstream_i[18] *146:13 36.7531 
2 *146:13 *1726:D_N 23 
*END

*D_NET *147 0.00161113
*CONN
*P sstream_i[19] I
*I *1727:D_N I *D sky130_fd_sc_hd__nor4b_1
*CAP
1 sstream_i[19] 0.000705539
2 *1727:D_N 0
3 *147:13 0.000705539
4 *147:13 *1728:D_N 0.000100024
5 *146:13 *147:13 0.000100024
*RES
1 sstream_i[19] *147:13 34.3709 
2 *147:13 *1727:D_N 23 
*END

*D_NET *148 0.00135661
*CONN
*P sstream_i[1] I
*I *1709:D_N I *D sky130_fd_sc_hd__nor4b_1
*CAP
1 sstream_i[1] 0.000570567
2 *1709:D_N 0
3 *148:13 0.000570567
4 *148:13 *159:17 0.000115453
5 *148:13 *170:15 0
6 *121:13 *148:13 0.000100024
*RES
1 sstream_i[1] *148:13 31.9888 
2 *148:13 *1709:D_N 23 
*END

*D_NET *149 0.00259895
*CONN
*P sstream_i[20] I
*I *1728:D_N I *D sky130_fd_sc_hd__nor4b_1
*CAP
1 sstream_i[20] 0.00115263
2 *1728:D_N 0.00115263
3 *1728:D_N *150:13 0.000100024
4 *1728:D_N *381:14 4.68153e-05
5 *1728:D_N *382:14 4.68153e-05
6 *147:13 *1728:D_N 0.000100024
*RES
1 sstream_i[20] *1728:D_N 49.7308 
*END

*D_NET *150 0.00161113
*CONN
*P sstream_i[21] I
*I *1729:D_N I *D sky130_fd_sc_hd__nor4b_1
*CAP
1 sstream_i[21] 0.000705539
2 *1729:D_N 0
3 *150:13 0.000705539
4 *150:13 *151:13 0.000100024
5 *1728:D_N *150:13 0.000100024
*RES
1 sstream_i[21] *150:13 34.3709 
2 *150:13 *1729:D_N 23 
*END

*D_NET *151 0.00214187
*CONN
*P sstream_i[22] I
*I *1730:D_N I *D sky130_fd_sc_hd__nor4b_1
*CAP
1 sstream_i[22] 0.0008826
2 *1730:D_N 0
3 *151:13 0.0008826
4 *151:13 *1730:A 0.00017761
5 *151:13 *152:13 9.90348e-05
6 *150:13 *151:13 0.000100024
*RES
1 sstream_i[22] *151:13 36.7531 
2 *151:13 *1730:D_N 23 
*END

*D_NET *152 0.00166257
*CONN
*P sstream_i[23] I
*I *1731:D_N I *D sky130_fd_sc_hd__nor4b_1
*CAP
1 sstream_i[23] 0.000731756
2 *1731:D_N 0
3 *152:13 0.000731756
4 *152:13 *153:13 0.000100024
5 *151:13 *152:13 9.90348e-05
*RES
1 sstream_i[23] *152:13 34.3709 
2 *152:13 *1731:D_N 23 
*END

*D_NET *153 0.00213708
*CONN
*P sstream_i[24] I
*I *1732:D_N I *D sky130_fd_sc_hd__nor4b_1
*CAP
1 sstream_i[24] 0.000880205
2 *1732:D_N 0
3 *153:13 0.000880205
4 *153:13 *1732:A 0.00017761
5 *153:13 *154:13 9.90348e-05
6 *152:13 *153:13 0.000100024
*RES
1 sstream_i[24] *153:13 36.7531 
2 *153:13 *1732:D_N 23 
*END

*D_NET *154 0.00166687
*CONN
*P sstream_i[25] I
*I *1733:D_N I *D sky130_fd_sc_hd__nor4b_1
*CAP
1 sstream_i[25] 0.000723529
2 *1733:D_N 0
3 *154:13 0.000723529
4 *154:13 *155:13 0.000100024
5 *154:13 *390:53 2.07484e-05
6 *153:13 *154:13 9.90348e-05
*RES
1 sstream_i[25] *154:13 34.3709 
2 *154:13 *1733:D_N 23 
*END

*D_NET *155 0.00210463
*CONN
*P sstream_i[26] I
*I *1734:D_N I *D sky130_fd_sc_hd__nor4b_1
*CAP
1 sstream_i[26] 0.000820233
2 *1734:D_N 0
3 *155:13 0.000820233
4 *155:13 *435:DIODE 3.71251e-05
5 *155:13 *1734:A 9.02461e-05
6 *155:13 *1734:B 0.000136743
7 *155:13 *156:17 0.000100024
8 *154:13 *155:13 0.000100024
*RES
1 sstream_i[26] *155:13 36.7531 
2 *155:13 *1734:D_N 23 
*END

*D_NET *156 0.00214481
*CONN
*P sstream_i[27] I
*I *1735:D_N I *D sky130_fd_sc_hd__nor4b_1
*CAP
1 sstream_i[27] 0.000742279
2 *1735:D_N 0
3 *156:17 0.000742279
4 *156:17 *444:DIODE 9.02575e-06
5 *156:17 *1978:A 3.85196e-05
6 *156:17 *157:15 9.90348e-05
7 *156:17 *392:14 0.000232288
8 *156:17 *393:6 0.000146822
9 *156:17 *416:173 3.4539e-05
10 *155:13 *156:17 0.000100024
*RES
1 sstream_i[27] *156:17 34.6609 
2 *156:17 *1735:D_N 23 
*END

*D_NET *157 0.00224636
*CONN
*P sstream_i[28] I
*I *1736:D_N I *D sky130_fd_sc_hd__nor4b_1
*CAP
1 sstream_i[28] 0.000868121
2 *1736:D_N 0
3 *157:15 0.000868121
4 *157:15 *1736:A 3.46255e-05
5 *157:15 *1736:B 2.57604e-05
6 *157:15 *1736:C 1.21972e-05
7 *157:15 *158:15 0.000100024
8 *157:15 *381:6 0.000142577
9 *157:15 *416:165 9.59004e-05
10 *156:17 *157:15 9.90348e-05
*RES
1 sstream_i[28] *157:15 36.8981 
2 *157:15 *1736:D_N 23 
*END

*D_NET *158 0.00214769
*CONN
*P sstream_i[29] I
*I *1737:D_N I *D sky130_fd_sc_hd__nor4b_1
*CAP
1 sstream_i[29] 0.000905985
2 *1737:D_N 0
3 *158:15 0.000905985
4 *158:15 *1980:A 3.22879e-05
5 *158:15 *160:19 9.90348e-05
6 *158:15 *394:10 8.25282e-05
7 *158:15 *400:48 2.18409e-05
8 *157:15 *158:15 0.000100024
*RES
1 sstream_i[29] *158:15 34.5159 
2 *158:15 *1737:D_N 23 
*END

*D_NET *159 0.00304161
*CONN
*P sstream_i[2] I
*I *1710:D_N I *D sky130_fd_sc_hd__nor4b_1
*CAP
1 sstream_i[2] 0.00103517
2 *1710:D_N 0
3 *159:17 0.00103517
4 *159:17 *1708:A 9.13336e-05
5 *159:17 *1708:C 0.000144494
6 *159:17 *1710:A 9.84851e-05
7 *159:17 *1710:C 0.000182832
8 *159:17 *170:15 7.69972e-05
9 *159:17 *240:12 2.31591e-05
10 *121:13 *159:17 0.000238518
11 *148:13 *159:17 0.000115453
*RES
1 sstream_i[2] *159:17 41.3456 
2 *159:17 *1710:D_N 23 
*END

*D_NET *160 0.00234024
*CONN
*P sstream_i[30] I
*I *1738:D_N I *D sky130_fd_sc_hd__nor4b_1
*CAP
1 sstream_i[30] 0.000842273
2 *1738:D_N 0
3 *160:19 0.000842273
4 *160:19 *1738:B 0.000101905
5 *160:19 *161:15 0.000246846
6 *160:19 *394:29 3.54168e-05
7 *160:19 *400:20 0.000148097
8 *160:19 *400:69 2.43944e-05
9 *158:15 *160:19 9.90348e-05
*RES
1 sstream_i[30] *160:19 37.8924 
2 *160:19 *1738:D_N 23 
*END

*D_NET *161 0.00228024
*CONN
*P sstream_i[31] I
*I *1986:A I *D sky130_fd_sc_hd__clkbuf_4
*CAP
1 sstream_i[31] 0.000757146
2 *1986:A 0
3 *161:15 0.000757146
4 *161:15 *162:17 0.000369969
5 *161:15 *400:20 0.000144501
6 *161:15 *400:24 4.6318e-06
7 *160:19 *161:15 0.000246846
*RES
1 sstream_i[31] *161:15 28.8854 
2 *161:15 *1986:A 23 
*END

*D_NET *162 0.00350676
*CONN
*P sstream_i[32] I
*I *1739:D_N I *D sky130_fd_sc_hd__nor4b_1
*CAP
1 sstream_i[32] 0.00113226
2 *1739:D_N 0
3 *162:17 0.00113226
4 *162:17 *1739:A 0.000314482
5 *162:17 *1739:B 4.34464e-05
6 *162:17 *1739:C 0.000229179
7 *162:17 *163:19 0.000149609
8 *162:17 *164:17 0
9 *162:17 *384:66 2.33476e-05
10 *162:17 *394:47 8.55621e-05
11 *162:17 *400:82 2.11157e-05
12 *162:17 *416:159 5.51976e-06
13 *161:15 *162:17 0.000369969
*RES
1 sstream_i[32] *162:17 30.8526 
2 *162:17 *1739:D_N 23 
*END

*D_NET *163 0.00197061
*CONN
*P sstream_i[33] I
*I *1740:D_N I *D sky130_fd_sc_hd__nor4b_1
*CAP
1 sstream_i[33] 0.000725517
2 *1740:D_N 0
3 *163:19 0.000725517
4 *163:19 *164:17 0.000369969
5 *162:17 *163:19 0.000149609
*RES
1 sstream_i[33] *163:19 28.9475 
2 *163:19 *1740:D_N 23 
*END

*D_NET *164 0.00324623
*CONN
*P sstream_i[34] I
*I *1741:D_N I *D sky130_fd_sc_hd__nor4b_1
*CAP
1 sstream_i[34] 0.00112582
2 *1741:D_N 0
3 *164:17 0.00112582
4 *164:17 *165:13 0.000100024
5 *164:17 *384:66 9.03227e-05
6 *164:17 *394:68 2.11157e-05
7 *164:17 *400:82 8.48183e-05
8 *164:17 *403:66 0.000328341
9 *162:17 *164:17 0
10 *163:19 *164:17 0.000369969
*RES
1 sstream_i[34] *164:17 30.2489 
2 *164:17 *1741:D_N 23 
*END

*D_NET *165 0.0015956
*CONN
*P sstream_i[35] I
*I *1742:D_N I *D sky130_fd_sc_hd__nor4b_1
*CAP
1 sstream_i[35] 0.000697777
2 *1742:D_N 0
3 *165:13 0.000697777
4 *165:13 *166:17 0.000100024
5 *164:17 *165:13 0.000100024
*RES
1 sstream_i[35] *165:13 34.3709 
2 *165:13 *1742:D_N 23 
*END

*D_NET *166 0.00362657
*CONN
*P sstream_i[36] I
*I *1743:D_N I *D sky130_fd_sc_hd__nor4b_1
*CAP
1 sstream_i[36] 0.00126279
2 *1743:D_N 0
3 *166:17 0.00126279
4 *166:17 *1743:A 9.58714e-05
5 *166:17 *167:13 0.000100024
6 *166:17 *394:81 0.000219882
7 *166:17 *394:94 0.000170092
8 *166:17 *403:54 0.000126866
9 *166:17 *403:56 0.000276775
10 *166:17 *403:58 1.14452e-05
11 *165:13 *166:17 0.000100024
*RES
1 sstream_i[36] *166:17 32.2348 
2 *166:17 *1743:D_N 23 
*END

*D_NET *167 0.00163861
*CONN
*P sstream_i[37] I
*I *1744:D_N I *D sky130_fd_sc_hd__nor4b_1
*CAP
1 sstream_i[37] 0.000711566
2 *1744:D_N 0
3 *167:13 0.000711566
4 *167:13 *168:13 0.000115453
5 *167:13 *169:13 0
6 *166:17 *167:13 0.000100024
*RES
1 sstream_i[37] *167:13 34.3709 
2 *167:13 *1744:D_N 23 
*END

*D_NET *168 0.00259941
*CONN
*P sstream_i[38] I
*I *1745:D_N I *D sky130_fd_sc_hd__nor4b_1
*CAP
1 sstream_i[38] 0.0010387
2 *1745:D_N 0
3 *168:13 0.0010387
4 *168:13 *1745:A 0.000141215
5 *168:13 *1745:C 5.3304e-05
6 *168:13 *169:13 7.69972e-05
7 *168:13 *394:100 0.000135037
8 *167:13 *168:13 0.000115453
*RES
1 sstream_i[38] *168:13 41.0556 
2 *168:13 *1745:D_N 23 
*END

*D_NET *169 0.00164131
*CONN
*P sstream_i[39] I
*I *1746:D_N I *D sky130_fd_sc_hd__nor4b_1
*CAP
1 sstream_i[39] 0.000713817
2 *1746:D_N 0
3 *169:13 0.000713817
4 *169:13 *171:13 0.000100024
5 *169:13 *394:134 3.66555e-05
6 *167:13 *169:13 0
7 *168:13 *169:13 7.69972e-05
*RES
1 sstream_i[39] *169:13 34.3709 
2 *169:13 *1746:D_N 23 
*END

*D_NET *170 0.00163278
*CONN
*P sstream_i[3] I
*I *1711:D_N I *D sky130_fd_sc_hd__nor4b_1
*CAP
1 sstream_i[3] 0.000704186
2 *1711:D_N 0
3 *170:15 0.000704186
4 *170:15 *181:23 0.000108274
5 *170:15 *192:21 3.91386e-05
6 *148:13 *170:15 0
7 *159:17 *170:15 7.69972e-05
*RES
1 sstream_i[3] *170:15 32.4475 
2 *170:15 *1711:D_N 23 
*END

*D_NET *171 0.00136418
*CONN
*P sstream_i[40] I
*I *1747:D_N I *D sky130_fd_sc_hd__nor4b_1
*CAP
1 sstream_i[40] 0.000544884
2 *1747:D_N 0
3 *171:13 0.000544884
4 *171:13 *172:17 0.000100024
5 *171:13 *394:151 1.76557e-05
6 *171:13 *403:33 5.67058e-05
7 *169:13 *171:13 0.000100024
*RES
1 sstream_i[40] *171:13 31.9888 
2 *171:13 *1747:D_N 23 
*END

*D_NET *172 0.00457347
*CONN
*P sstream_i[41] I
*I *1748:D_N I *D sky130_fd_sc_hd__nor4b_1
*CAP
1 sstream_i[41] 0.00129102
2 *1748:D_N 0
3 *172:17 0.00129102
4 *172:17 *1748:A 5.56279e-05
5 *172:17 *173:17 0.000910648
6 *172:17 *400:82 0.000594088
7 *172:17 *403:46 7.45997e-05
8 *172:17 *403:48 0.000124873
9 *172:17 *403:50 6.07611e-06
10 *172:17 *416:159 0.000125494
11 *171:13 *172:17 0.000100024
*RES
1 sstream_i[41] *172:17 34.6614 
2 *172:17 *1748:D_N 23 
*END

*D_NET *173 0.00333751
*CONN
*P sstream_i[42] I
*I *1749:D_N I *D sky130_fd_sc_hd__nor4b_1
*CAP
1 sstream_i[42] 0.00105592
2 *1749:D_N 0
3 *173:17 0.00105592
4 *173:17 *1749:A 9.58714e-05
5 *173:17 *1749:C 4.67488e-05
6 *173:17 *174:19 0.000149222
7 *173:17 *394:147 0
8 *173:17 *400:82 2.31765e-05
9 *173:17 *403:29 0
10 *172:17 *173:17 0.000910648
*RES
1 sstream_i[42] *173:17 30.2489 
2 *173:17 *1749:D_N 23 
*END

*D_NET *174 0.00208362
*CONN
*P sstream_i[43] I
*I *1750:D_N I *D sky130_fd_sc_hd__nor4b_1
*CAP
1 sstream_i[43] 0.000886894
2 *1750:D_N 0
3 *174:19 0.000886894
4 *174:19 *175:13 0.000100024
5 *174:19 *403:29 6.059e-05
6 *173:17 *174:19 0.000149222
*RES
1 sstream_i[43] *174:19 30.0039 
2 *174:19 *1750:D_N 23 
*END

*D_NET *175 0.00150009
*CONN
*P sstream_i[44] I
*I *1751:D_N I *D sky130_fd_sc_hd__nor4b_1
*CAP
1 sstream_i[44] 0.00065002
2 *1751:D_N 0
3 *175:13 0.00065002
4 *175:13 *176:13 0.000100024
5 *175:13 *360:18 0
6 *174:19 *175:13 0.000100024
*RES
1 sstream_i[44] *175:13 31.9888 
2 *175:13 *1751:D_N 23 
*END

*D_NET *176 0.00174568
*CONN
*P sstream_i[45] I
*I *1752:D_N I *D sky130_fd_sc_hd__nor4b_1
*CAP
1 sstream_i[45] 0.000773313
2 *1752:D_N 0
3 *176:13 0.000773313
4 *176:13 *177:17 9.90348e-05
5 *176:13 *360:18 0
6 *175:13 *176:13 0.000100024
*RES
1 sstream_i[45] *176:13 34.3709 
2 *176:13 *1752:D_N 23 
*END

*D_NET *177 0.00394888
*CONN
*P sstream_i[46] I
*I *1753:D_N I *D sky130_fd_sc_hd__nor4b_1
*CAP
1 sstream_i[46] 0.00138653
2 *1753:D_N 0
3 *177:17 0.00138653
4 *177:17 *1750:B 9.28078e-06
5 *177:17 *1751:C 5.56279e-05
6 *177:17 *1753:A 2.02872e-05
7 *177:17 *178:13 0.000100024
8 *177:17 *294:14 9.41704e-05
9 *177:17 *384:26 0.000125342
10 *177:17 *385:81 0.00022065
11 *177:17 *395:32 0.000246214
12 *177:17 *395:58 0.000164467
13 *177:17 *411:57 2.71502e-05
14 *177:17 *411:59 1.35751e-05
15 *176:13 *177:17 9.90348e-05
*RES
1 sstream_i[46] *177:17 32.5869 
2 *177:17 *1753:D_N 23 
*END

*D_NET *178 0.00193224
*CONN
*P sstream_i[47] I
*I *1754:D_N I *D sky130_fd_sc_hd__nor4b_1
*CAP
1 sstream_i[47] 0.000657354
2 *1754:D_N 0
3 *178:13 0.000657354
4 *178:13 *179:13 0.000115453
5 *178:13 *180:13 0
6 *178:13 *359:6 0.000402055
7 *178:13 *360:31 0
8 *177:17 *178:13 0.000100024
*RES
1 sstream_i[47] *178:13 34.3709 
2 *178:13 *1754:D_N 23 
*END

*D_NET *179 0.00274846
*CONN
*P sstream_i[48] I
*I *1755:D_N I *D sky130_fd_sc_hd__nor4b_1
*CAP
1 sstream_i[48] 0.000970487
2 *1755:D_N 0
3 *179:13 0.000970487
4 *179:13 *1755:A 0.000181805
5 *179:13 *1755:C 5.56356e-05
6 *179:13 *180:13 7.69972e-05
7 *179:13 *360:10 0.000377593
8 *179:13 *360:18 0
9 *179:13 *360:31 0
10 *178:13 *179:13 0.000115453
*RES
1 sstream_i[48] *179:13 41.0556 
2 *179:13 *1755:D_N 23 
*END

*D_NET *180 0.00174673
*CONN
*P sstream_i[49] I
*I *1756:D_N I *D sky130_fd_sc_hd__nor4b_1
*CAP
1 sstream_i[49] 0.000748164
2 *1756:D_N 0
3 *180:13 0.000748164
4 *180:13 *182:13 0.000115453
5 *180:13 *183:13 0
6 *180:13 *360:31 0
7 *180:13 *411:47 5.79559e-05
8 *178:13 *180:13 0
9 *179:13 *180:13 7.69972e-05
*RES
1 sstream_i[49] *180:13 34.3709 
2 *180:13 *1756:D_N 23 
*END

*D_NET *181 0.00219178
*CONN
*P sstream_i[4] I
*I *1712:D_N I *D sky130_fd_sc_hd__nor4b_1
*CAP
1 sstream_i[4] 0.000824022
2 *1712:D_N 0
3 *181:23 0.000824022
4 *181:23 *192:21 0.000435465
5 *181:23 *391:68 0
6 *170:15 *181:23 0.000108274
*RES
1 sstream_i[4] *181:23 28.7241 
2 *181:23 *1712:D_N 23 
*END

*D_NET *182 0.0026349
*CONN
*P sstream_i[50] I
*I *1757:D_N I *D sky130_fd_sc_hd__nor4b_1
*CAP
1 sstream_i[50] 0.0011284
2 *1757:D_N 0
3 *182:13 0.0011284
4 *182:13 *1757:A 0.000179473
5 *182:13 *1757:B 6.17437e-06
6 *182:13 *183:13 7.69972e-05
7 *182:13 *360:31 0
8 *180:13 *182:13 0.000115453
*RES
1 sstream_i[50] *182:13 41.0556 
2 *182:13 *1757:D_N 23 
*END

*D_NET *183 0.00162962
*CONN
*P sstream_i[51] I
*I *1758:D_N I *D sky130_fd_sc_hd__nor4b_1
*CAP
1 sstream_i[51] 0.000721282
2 *1758:D_N 0
3 *183:13 0.000721282
4 *183:13 *184:17 0.000110054
5 *183:13 *360:31 0
6 *180:13 *183:13 0
7 *182:13 *183:13 7.69972e-05
*RES
1 sstream_i[51] *183:13 32.3025 
2 *183:13 *1758:D_N 23 
*END

*D_NET *184 0.00332765
*CONN
*P sstream_i[52] I
*I *1759:D_N I *D sky130_fd_sc_hd__nor4b_1
*CAP
1 sstream_i[52] 0.00123925
2 *1759:D_N 0
3 *184:17 0.00123925
4 *184:17 *1758:C 5.56279e-05
5 *184:17 *185:13 0.000100024
6 *184:17 *302:10 2.02872e-05
7 *184:17 *384:26 0.000235604
8 *184:17 *395:115 6.16531e-05
9 *184:17 *395:128 0.000171719
10 *184:17 *411:30 9.41704e-05
11 *184:17 *416:159 0
12 *183:13 *184:17 0.000110054
*RES
1 sstream_i[52] *184:17 30.2489 
2 *184:17 *1759:D_N 23 
*END

*D_NET *185 0.00175248
*CONN
*P sstream_i[53] I
*I *1760:D_N I *D sky130_fd_sc_hd__nor4b_1
*CAP
1 sstream_i[53] 0.000698367
2 *1760:D_N 0
3 *185:13 0.000698367
4 *185:13 *1997:A 5.3304e-05
5 *185:13 *186:13 0.000100024
6 *185:13 *411:6 0.000102389
7 *184:17 *185:13 0.000100024
*RES
1 sstream_i[53] *185:13 34.3709 
2 *185:13 *1760:D_N 23 
*END

*D_NET *186 0.00203079
*CONN
*P sstream_i[54] I
*I *1761:D_N I *D sky130_fd_sc_hd__nor4b_1
*CAP
1 sstream_i[54] 0.000851749
2 *1761:D_N 0
3 *186:13 0.000851749
4 *186:13 *452:DIODE 6.60621e-05
5 *186:13 *1761:B 6.17437e-06
6 *186:13 *1761:C 5.50106e-05
7 *186:13 *187:13 0.000100024
8 *185:13 *186:13 0.000100024
*RES
1 sstream_i[54] *186:13 36.7531 
2 *186:13 *1761:D_N 23 
*END

*D_NET *187 0.00197548
*CONN
*P sstream_i[55] I
*I *1762:D_N I *D sky130_fd_sc_hd__nor4b_1
*CAP
1 sstream_i[55] 0.000592238
2 *1762:D_N 0
3 *187:13 0.000592238
4 *187:13 *1762:C 8.88657e-05
5 *187:13 *188:15 9.90348e-05
6 *187:13 *394:157 0.000228848
7 *187:13 *403:27 0.000274234
8 *186:13 *187:13 0.000100024
*RES
1 sstream_i[55] *187:13 34.3709 
2 *187:13 *1762:D_N 23 
*END

*D_NET *188 0.00146511
*CONN
*P sstream_i[56] I
*I *1763:D_N I *D sky130_fd_sc_hd__nor4b_1
*CAP
1 sstream_i[56] 0.00058113
2 *1763:D_N 0
3 *188:15 0.00058113
4 *188:15 *1989:A 3.24862e-05
5 *188:15 *189:13 0.000100024
6 *188:15 *403:6 7.12999e-05
7 *187:13 *188:15 9.90348e-05
*RES
1 sstream_i[56] *188:15 32.1338 
2 *188:15 *1763:D_N 23 
*END

*D_NET *189 0.00283176
*CONN
*P sstream_i[57] I
*I *1764:D_N I *D sky130_fd_sc_hd__nor4b_1
*CAP
1 sstream_i[57] 0.00101572
2 *1764:D_N 0
3 *189:21 0.000150087
4 *189:13 0.00116581
5 *189:13 *1966:A 3.22465e-05
6 *189:13 *190:13 9.90348e-05
7 *189:21 *1764:A 9.84851e-05
8 *189:21 *1764:C 0.000100803
9 *189:21 *384:18 5.94125e-05
10 *189:21 *384:20 1.01436e-05
11 *188:15 *189:13 0.000100024
*RES
1 sstream_i[57] *189:13 35.0959 
2 *189:13 *189:21 33.0036 
3 *189:21 *1764:D_N 23 
*END

*D_NET *190 0.00144299
*CONN
*P sstream_i[58] I
*I *1765:D_N I *D sky130_fd_sc_hd__nor4b_1
*CAP
1 sstream_i[58] 0.000621966
2 *1765:D_N 0
3 *190:13 0.000621966
4 *190:13 *191:17 0.000100024
5 *190:13 *361:24 0
6 *189:13 *190:13 9.90348e-05
*RES
1 sstream_i[58] *190:13 31.9888 
2 *190:13 *1765:D_N 23 
*END

*D_NET *191 0.0030487
*CONN
*P sstream_i[59] I
*I *1766:D_N I *D sky130_fd_sc_hd__nor4b_1
*CAP
1 sstream_i[59] 0.00121148
2 *1766:D_N 0
3 *191:17 0.00121148
4 *191:17 *1766:B 0.00016604
5 *191:17 *193:13 0.000100024
6 *191:17 *237:14 3.87221e-06
7 *191:17 *309:18 0.000233127
8 *191:17 *396:16 2.26406e-05
9 *190:13 *191:17 0.000100024
*RES
1 sstream_i[59] *191:17 28.6034 
2 *191:17 *1766:D_N 23 
*END

*D_NET *192 0.0033536
*CONN
*P sstream_i[5] I
*I *1713:D_N I *D sky130_fd_sc_hd__nor4b_1
*CAP
1 sstream_i[5] 0.00113234
2 *1713:D_N 0
3 *192:21 0.00113234
4 *192:21 *1711:C 0.000144494
5 *192:21 *1713:A 9.84851e-05
6 *192:21 *1713:C 3.44001e-05
7 *192:21 *203:13 0.000100024
8 *192:21 *289:14 0.000223408
9 *192:21 *382:51 1.34995e-05
10 *192:21 *391:68 0
11 *170:15 *192:21 3.91386e-05
12 *181:23 *192:21 0.000435465
*RES
1 sstream_i[5] *192:21 38.2038 
2 *192:21 *1713:D_N 23 
*END

*D_NET *193 0.00227702
*CONN
*P sstream_i[60] I
*I *1767:D_N I *D sky130_fd_sc_hd__nor4b_1
*CAP
1 sstream_i[60] 0.000817685
2 *1767:D_N 0
3 *193:13 0.000817685
4 *193:13 *1767:B 0.000136743
5 *193:13 *1767:C 2.93845e-05
6 *193:13 *194:13 0.000100024
7 *193:13 *361:24 0
8 *193:13 *386:43 0.000275472
9 *191:17 *193:13 0.000100024
*RES
1 sstream_i[60] *193:13 36.7531 
2 *193:13 *1767:D_N 23 
*END

*D_NET *194 0.00163886
*CONN
*P sstream_i[61] I
*I *1768:D_N I *D sky130_fd_sc_hd__nor4b_1
*CAP
1 sstream_i[61] 0.000719408
2 *1768:D_N 0
3 *194:13 0.000719408
4 *194:13 *195:13 0.000100024
5 *194:13 *361:24 0
6 *193:13 *194:13 0.000100024
*RES
1 sstream_i[61] *194:13 34.3709 
2 *194:13 *1768:D_N 23 
*END

*D_NET *195 0.00214763
*CONN
*P sstream_i[62] I
*I *1769:D_N I *D sky130_fd_sc_hd__nor4b_1
*CAP
1 sstream_i[62] 0.000883694
2 *1769:D_N 0
3 *195:13 0.000883694
4 *195:13 *1769:B 0.00018118
5 *195:13 *196:17 9.90348e-05
6 *195:13 *361:24 0
7 *194:13 *195:13 0.000100024
*RES
1 sstream_i[62] *195:13 36.7531 
2 *195:13 *1769:D_N 23 
*END

*D_NET *196 0.00429412
*CONN
*P sstream_i[63] I
*I *1976:A I *D sky130_fd_sc_hd__clkbuf_4
*CAP
1 sstream_i[63] 0.00154161
2 *1976:A 0
3 *196:17 0.00154161
4 *196:17 *197:17 0.0001441
5 *196:17 *199:15 0
6 *196:17 *237:14 0.000352207
7 *196:17 *361:18 6.24251e-05
8 *196:17 *379:8 0.000142636
9 *196:17 *386:25 4.73448e-05
10 *196:17 *386:88 0.000159796
11 *196:17 *386:107 0.000160159
12 *196:17 *412:130 4.32061e-05
13 *195:13 *196:17 9.90348e-05
*RES
1 sstream_i[63] *196:17 33.8294 
2 *196:17 *1976:A 23 
*END

*D_NET *197 0.00262894
*CONN
*P sstream_i[64] I
*I *1770:D_N I *D sky130_fd_sc_hd__nor4b_1
*CAP
1 sstream_i[64] 0.000814972
2 *1770:D_N 0
3 *197:17 0.000814972
4 *197:17 *1770:B 0.000125392
5 *197:17 *1770:C 2.93845e-05
6 *197:17 *198:13 0.000369189
7 *197:17 *199:15 0
8 *197:17 *317:12 9.87385e-06
9 *197:17 *361:24 4.75766e-05
10 *197:17 *396:97 0.000257577
11 *197:17 *412:130 1.59094e-05
12 *196:17 *197:17 0.0001441
*RES
1 sstream_i[64] *197:17 35.833 
2 *197:17 *1770:D_N 23 
*END

*D_NET *198 0.00158122
*CONN
*P sstream_i[65] I
*I *1771:D_N I *D sky130_fd_sc_hd__nor4b_1
*CAP
1 sstream_i[65] 0.000556497
2 *1771:D_N 0
3 *198:13 0.000556497
4 *198:13 *199:15 9.90348e-05
5 *198:13 *361:24 0
6 *197:17 *198:13 0.000369189
*RES
1 sstream_i[65] *198:13 32.6931 
2 *198:13 *1771:D_N 23 
*END

*D_NET *199 0.00435361
*CONN
*P sstream_i[66] I
*I *1772:D_N I *D sky130_fd_sc_hd__nor4b_1
*CAP
1 sstream_i[66] 0.00149304
2 *1772:D_N 0
3 *199:15 0.00149304
4 *199:15 *200:13 0.000100024
5 *199:15 *237:14 8.81496e-05
6 *199:15 *362:14 0.000382583
7 *199:15 *396:121 4.75766e-05
8 *199:15 *412:57 0.000187335
9 *199:15 *412:59 0.000420937
10 *199:15 *412:130 4.18905e-05
11 *196:17 *199:15 0
12 *197:17 *199:15 0
13 *198:13 *199:15 9.90348e-05
*RES
1 sstream_i[66] *199:15 34.2527 
2 *199:15 *1772:D_N 23 
*END

*D_NET *200 0.00171524
*CONN
*P sstream_i[67] I
*I *1773:D_N I *D sky130_fd_sc_hd__nor4b_1
*CAP
1 sstream_i[67] 0.000729777
2 *1773:D_N 0
3 *200:13 0.000729777
4 *200:13 *201:17 0.000100024
5 *200:13 *396:133 5.56356e-05
6 *199:15 *200:13 0.000100024
*RES
1 sstream_i[67] *200:13 34.3709 
2 *200:13 *1773:D_N 23 
*END

*D_NET *201 0.00373689
*CONN
*P sstream_i[68] I
*I *1774:D_N I *D sky130_fd_sc_hd__nor4b_1
*CAP
1 sstream_i[68] 0.00133411
2 *1774:D_N 0
3 *201:17 0.00133411
4 *201:17 *1774:B 3.78859e-05
5 *201:17 *1777:C 5.3304e-05
6 *201:17 *202:13 0.000100024
7 *201:17 *204:15 0
8 *201:17 *237:14 2.5723e-05
9 *201:17 *324:10 5.56356e-05
10 *201:17 *386:116 5.02335e-05
11 *201:17 *386:129 0.000204287
12 *201:17 *386:144 0.000158815
13 *201:17 *396:133 3.48578e-05
14 *201:17 *396:158 0.000111129
15 *201:17 *396:177 0.000136743
16 *201:17 *416:120 0
17 *200:13 *201:17 0.000100024
*RES
1 sstream_i[68] *201:17 33.7202 
2 *201:17 *1774:D_N 23 
*END

*D_NET *202 0.00182369
*CONN
*P sstream_i[69] I
*I *1775:D_N I *D sky130_fd_sc_hd__nor4b_1
*CAP
1 sstream_i[69] 0.000696562
2 *1775:D_N 0
3 *202:13 0.000696562
4 *202:13 *204:15 9.90348e-05
5 *202:13 *412:47 0.000231502
6 *201:17 *202:13 0.000100024
*RES
1 sstream_i[69] *202:13 34.3709 
2 *202:13 *1775:D_N 23 
*END

*D_NET *203 0.00139743
*CONN
*P sstream_i[6] I
*I *1714:D_N I *D sky130_fd_sc_hd__nor4b_1
*CAP
1 sstream_i[6] 0.000599185
2 *1714:D_N 0
3 *203:13 0.000599185
4 *203:13 *214:13 9.90348e-05
5 *192:21 *203:13 0.000100024
*RES
1 sstream_i[6] *203:13 31.9888 
2 *203:13 *1714:D_N 23 
*END

*D_NET *204 0.00368659
*CONN
*P sstream_i[70] I
*I *1776:D_N I *D sky130_fd_sc_hd__nor4b_1
*CAP
1 sstream_i[70] 0.00151464
2 *1776:D_N 0
3 *204:15 0.00151464
4 *204:15 *1774:A 2.05503e-05
5 *204:15 *1952:A 0.000201883
6 *204:15 *205:13 0.000100024
7 *204:15 *206:17 0
8 *204:15 *237:14 2.80291e-05
9 *204:15 *237:16 0.000174664
10 *204:15 *367:36 0
11 *204:15 *367:51 0
12 *204:15 *400:231 3.3123e-05
13 *201:17 *204:15 0
14 *202:13 *204:15 9.90348e-05
*RES
1 sstream_i[70] *204:15 32.013 
2 *204:15 *1776:D_N 23 
*END

*D_NET *205 0.0015357
*CONN
*P sstream_i[71] I
*I *1777:D_N I *D sky130_fd_sc_hd__nor4b_1
*CAP
1 sstream_i[71] 0.000635449
2 *1777:D_N 0
3 *205:13 0.000635449
4 *205:13 *1777:A 1.24376e-05
5 *205:13 *206:17 9.90348e-05
6 *205:13 *386:162 5.3304e-05
7 *204:15 *205:13 0.000100024
*RES
1 sstream_i[71] *205:13 32.6931 
2 *205:13 *1777:D_N 23 
*END

*D_NET *206 0.00390444
*CONN
*P sstream_i[72] I
*I *1778:D_N I *D sky130_fd_sc_hd__nor4b_1
*CAP
1 sstream_i[72] 0.00139087
2 *1778:D_N 0
3 *206:17 0.00139087
4 *206:17 *1780:A 0.000180224
5 *206:17 *207:15 0.000100024
6 *206:17 *237:16 1.99174e-05
7 *206:17 *327:10 0.000180224
8 *206:17 *386:170 0.000262963
9 *206:17 *387:22 0.000220948
10 *206:17 *397:30 5.93746e-05
11 *206:17 *416:120 0
12 *204:15 *206:17 0
13 *205:13 *206:17 9.90348e-05
*RES
1 sstream_i[72] *206:17 33.7202 
2 *206:17 *1778:D_N 23 
*END

*D_NET *207 0.00202307
*CONN
*P sstream_i[73] I
*I *1779:D_N I *D sky130_fd_sc_hd__nor4b_1
*CAP
1 sstream_i[73] 0.000668544
2 *1779:D_N 0
3 *207:15 0.000668544
4 *207:15 *1779:A 1.12349e-05
5 *207:15 *1973:A 9.58714e-05
6 *207:15 *208:13 9.90348e-05
7 *207:15 *386:162 0.000307692
8 *207:15 *387:10 5.01469e-05
9 *207:15 *390:153 1.41077e-05
10 *207:15 *413:60 7.86509e-06
11 *206:17 *207:15 0.000100024
*RES
1 sstream_i[73] *207:15 34.5159 
2 *207:15 *1779:D_N 23 
*END

*D_NET *208 0.00147056
*CONN
*P sstream_i[74] I
*I *1780:D_N I *D sky130_fd_sc_hd__nor4b_1
*CAP
1 sstream_i[74] 0.00063575
2 *1780:D_N 0
3 *208:13 0.00063575
4 *208:13 *209:13 0.000100024
5 *207:15 *208:13 9.90348e-05
*RES
1 sstream_i[74] *208:13 31.9888 
2 *208:13 *1780:D_N 23 
*END

*D_NET *209 0.00169386
*CONN
*P sstream_i[75] I
*I *1781:D_N I *D sky130_fd_sc_hd__nor4b_1
*CAP
1 sstream_i[75] 0.000746904
2 *1781:D_N 0
3 *209:13 0.000746904
4 *209:13 *210:15 0.000100024
5 *208:13 *209:13 0.000100024
*RES
1 sstream_i[75] *209:13 34.3709 
2 *209:13 *1781:D_N 23 
*END

*D_NET *210 0.00317254
*CONN
*P sstream_i[76] I
*I *1782:D_N I *D sky130_fd_sc_hd__nor4b_1
*CAP
1 sstream_i[76] 0.00130692
2 *1782:D_N 0
3 *210:15 0.00130692
4 *210:15 *211:13 0.000100024
5 *210:15 *237:16 0.000179321
6 *210:15 *413:31 0.000179321
7 *209:13 *210:15 0.000100024
*RES
1 sstream_i[76] *210:15 28.6185 
2 *210:15 *1782:D_N 23 
*END

*D_NET *211 0.00166848
*CONN
*P sstream_i[77] I
*I *1783:D_N I *D sky130_fd_sc_hd__nor4b_1
*CAP
1 sstream_i[77] 0.000734216
2 *1783:D_N 0
3 *211:13 0.000734216
4 *211:13 *212:13 0.000100024
5 *210:15 *211:13 0.000100024
*RES
1 sstream_i[77] *211:13 34.3709 
2 *211:13 *1783:D_N 23 
*END

*D_NET *212 0.00221477
*CONN
*P sstream_i[78] I
*I *1784:D_N I *D sky130_fd_sc_hd__nor4b_1
*CAP
1 sstream_i[78] 0.000866844
2 *1784:D_N 0
3 *212:13 0.000866844
4 *212:13 *1784:B 0.000135037
5 *212:13 *1784:C 4.67488e-05
6 *212:13 *213:13 9.90348e-05
7 *212:13 *396:196 0.000100236
8 *211:13 *212:13 0.000100024
*RES
1 sstream_i[78] *212:13 36.7531 
2 *212:13 *1784:D_N 23 
*END

*D_NET *213 0.00172471
*CONN
*P sstream_i[79] I
*I *1785:D_N I *D sky130_fd_sc_hd__nor4b_1
*CAP
1 sstream_i[79] 0.000762827
2 *1785:D_N 0
3 *213:13 0.000762827
4 *213:13 *215:13 0.000100024
5 *212:13 *213:13 9.90348e-05
*RES
1 sstream_i[79] *213:13 34.3709 
2 *213:13 *1785:D_N 23 
*END

*D_NET *214 0.00159167
*CONN
*P sstream_i[7] I
*I *1715:D_N I *D sky130_fd_sc_hd__nor4b_1
*CAP
1 sstream_i[7] 0.000696306
2 *1715:D_N 0
3 *214:13 0.000696306
4 *214:13 *225:17 0.000100024
5 *203:13 *214:13 9.90348e-05
*RES
1 sstream_i[7] *214:13 34.3709 
2 *214:13 *1715:D_N 23 
*END

*D_NET *215 0.00222729
*CONN
*P sstream_i[80] I
*I *1786:D_N I *D sky130_fd_sc_hd__nor4b_1
*CAP
1 sstream_i[80] 0.000899511
2 *1786:D_N 0
3 *215:13 0.000899511
4 *215:13 *1786:B 0.000135037
5 *215:13 *1786:C 9.41704e-05
6 *215:13 *1787:D_N 9.90348e-05
7 *213:13 *215:13 0.000100024
*RES
1 sstream_i[80] *215:13 36.7531 
2 *215:13 *1786:D_N 23 
*END

*D_NET *216 0.00214948
*CONN
*P sstream_i[81] I
*I *1787:D_N I *D sky130_fd_sc_hd__nor4b_1
*CAP
1 sstream_i[81] 0.000963536
2 *1787:D_N 0.000963536
3 *1787:D_N *217:13 0.000100024
4 *1787:D_N *386:170 2.33476e-05
5 *215:13 *1787:D_N 9.90348e-05
*RES
1 sstream_i[81] *1787:D_N 48.9493 
*END

*D_NET *217 0.00212888
*CONN
*P sstream_i[82] I
*I *1788:D_N I *D sky130_fd_sc_hd__nor4b_1
*CAP
1 sstream_i[82] 0.00080941
2 *1788:D_N 0
3 *217:13 0.00080941
4 *217:13 *1788:A 1.24376e-05
5 *217:13 *1788:B 0.000178517
6 *217:13 *218:13 0.000100024
7 *217:13 *396:202 0.00011906
8 *1787:D_N *217:13 0.000100024
*RES
1 sstream_i[82] *217:13 36.7531 
2 *217:13 *1788:D_N 23 
*END

*D_NET *218 0.00170342
*CONN
*P sstream_i[83] I
*I *1789:D_N I *D sky130_fd_sc_hd__nor4b_1
*CAP
1 sstream_i[83] 0.000752182
2 *1789:D_N 0
3 *218:13 0.000752182
4 *218:13 *219:13 9.90348e-05
5 *217:13 *218:13 0.000100024
*RES
1 sstream_i[83] *218:13 34.3709 
2 *218:13 *1789:D_N 23 
*END

*D_NET *219 0.00210186
*CONN
*P sstream_i[84] I
*I *1790:D_N I *D sky130_fd_sc_hd__nor4b_1
*CAP
1 sstream_i[84] 0.000855924
2 *1790:D_N 0
3 *219:13 0.000855924
4 *219:13 *1790:A 1.24376e-05
5 *219:13 *1790:B 0.000178517
6 *219:13 *220:13 0.000100024
7 *218:13 *219:13 9.90348e-05
*RES
1 sstream_i[84] *219:13 36.7531 
2 *219:13 *1790:D_N 23 
*END

*D_NET *220 0.00171286
*CONN
*P sstream_i[85] I
*I *1791:D_N I *D sky130_fd_sc_hd__nor4b_1
*CAP
1 sstream_i[85] 0.000728451
2 *1791:D_N 0
3 *220:13 0.000728451
4 *220:13 *453:DIODE 5.68958e-05
5 *220:13 *1792:D_N 9.90348e-05
6 *219:13 *220:13 0.000100024
*RES
1 sstream_i[85] *220:13 34.3709 
2 *220:13 *1791:D_N 23 
*END

*D_NET *221 0.00268544
*CONN
*P sstream_i[86] I
*I *1792:D_N I *D sky130_fd_sc_hd__nor4b_1
*CAP
1 sstream_i[86] 0.00121221
2 *1792:D_N 0.00121221
3 *1792:D_N *1792:A 1.14452e-05
4 *1792:D_N *222:17 0.000100024
5 *1792:D_N *237:16 5.05059e-05
6 *1792:D_N *369:20 0
7 *220:13 *1792:D_N 9.90348e-05
*RES
1 sstream_i[86] *1792:D_N 49.7308 
*END

*D_NET *222 0.00185717
*CONN
*P sstream_i[87] I
*I *1793:D_N I *D sky130_fd_sc_hd__nor4b_1
*CAP
1 sstream_i[87] 0.000707084
2 *1793:D_N 0
3 *222:17 0.000707084
4 *222:17 *1974:A 5.50106e-05
5 *222:17 *223:13 9.90348e-05
6 *222:17 *388:8 0.000188934
7 *1792:D_N *222:17 0.000100024
*RES
1 sstream_i[87] *222:17 34.6609 
2 *222:17 *1793:D_N 23 
*END

*D_NET *223 0.00216138
*CONN
*P sstream_i[88] I
*I *1794:D_N I *D sky130_fd_sc_hd__nor4b_1
*CAP
1 sstream_i[88] 0.000808563
2 *1794:D_N 0
3 *223:13 0.000808563
4 *223:13 *431:DIODE 0.000115331
5 *223:13 *1794:B 0.000136743
6 *223:13 *1794:C 4.34973e-05
7 *223:13 *224:13 0.000100024
8 *223:13 *398:24 4.96207e-05
9 *222:17 *223:13 9.90348e-05
*RES
1 sstream_i[88] *223:13 36.7531 
2 *223:13 *1794:D_N 23 
*END

*D_NET *224 0.00163866
*CONN
*P sstream_i[89] I
*I *1795:D_N I *D sky130_fd_sc_hd__nor4b_1
*CAP
1 sstream_i[89] 0.000719307
2 *1795:D_N 0
3 *224:13 0.000719307
4 *224:13 *226:13 0.000100024
5 *223:13 *224:13 0.000100024
*RES
1 sstream_i[89] *224:13 34.3709 
2 *224:13 *1795:D_N 23 
*END

*D_NET *225 0.00341023
*CONN
*P sstream_i[8] I
*I *1716:D_N I *D sky130_fd_sc_hd__nor4b_1
*CAP
1 sstream_i[8] 0.00125949
2 *1716:D_N 0
3 *225:17 0.00125949
4 *225:17 *1716:C 4.34745e-05
5 *225:17 *236:13 0.000100024
6 *225:17 *322:10 6.27395e-05
7 *225:17 *381:56 2.12347e-06
8 *225:17 *381:58 1.17152e-05
9 *225:17 *381:66 2.76611e-06
10 *225:17 *382:39 5.85945e-05
11 *225:17 *382:41 0.000109452
12 *225:17 *382:49 5.58975e-06
13 *225:17 *391:39 2.05503e-05
14 *225:17 *391:43 0.000152668
15 *225:17 *391:49 0.000166513
16 *225:17 *391:53 5.50106e-05
17 *139:17 *225:17 0
18 *214:13 *225:17 0.000100024
*RES
1 sstream_i[8] *225:17 32.2348 
2 *225:17 *1716:D_N 23 
*END

*D_NET *226 0.00212227
*CONN
*P sstream_i[90] I
*I *1796:D_N I *D sky130_fd_sc_hd__nor4b_1
*CAP
1 sstream_i[90] 0.000878689
2 *1796:D_N 0
3 *226:13 0.000878689
4 *226:13 *1796:B 9.5877e-05
5 *226:13 *1796:C 6.99589e-05
6 *226:13 *227:15 9.90348e-05
7 *224:13 *226:13 0.000100024
*RES
1 sstream_i[90] *226:13 36.7531 
2 *226:13 *1796:D_N 23 
*END

*D_NET *227 0.00321239
*CONN
*P sstream_i[91] I
*I *1797:D_N I *D sky130_fd_sc_hd__nor4b_1
*CAP
1 sstream_i[91] 0.00127105
2 *1797:D_N 0
3 *227:15 0.00127105
4 *227:15 *228:13 0.000100024
5 *227:15 *237:16 0.00023561
6 *227:15 *414:21 0.00023561
7 *226:13 *227:15 9.90348e-05
*RES
1 sstream_i[91] *227:15 29.1958 
2 *227:15 *1797:D_N 23 
*END

*D_NET *228 0.00142496
*CONN
*P sstream_i[92] I
*I *1798:D_N I *D sky130_fd_sc_hd__nor4b_1
*CAP
1 sstream_i[92] 0.000612953
2 *1798:D_N 0
3 *228:13 0.000612953
4 *228:13 *229:17 9.90348e-05
5 *227:15 *228:13 0.000100024
*RES
1 sstream_i[92] *228:13 31.9888 
2 *228:13 *1798:D_N 23 
*END

*D_NET *229 0.00190371
*CONN
*P sstream_i[93] I
*I *1799:D_N I *D sky130_fd_sc_hd__nor4b_1
*CAP
1 sstream_i[93] 0.000726874
2 *1799:D_N 0
3 *229:17 0.000726874
4 *229:17 *1799:A 4.21048e-05
5 *229:17 *2000:A 5.81222e-05
6 *229:17 *230:13 0.000100024
7 *229:17 *414:79 0.000144501
8 *229:17 *416:10 6.17437e-06
9 *228:13 *229:17 9.90348e-05
*RES
1 sstream_i[93] *229:17 34.6609 
2 *229:17 *1799:D_N 23 
*END

*D_NET *230 0.00230349
*CONN
*P sstream_i[94] I
*I *1800:D_N I *D sky130_fd_sc_hd__nor4b_1
*CAP
1 sstream_i[94] 0.000810005
2 *1800:D_N 0
3 *230:13 0.000810005
4 *230:13 *1800:A 0.000126114
5 *230:13 *231:17 9.90348e-05
6 *230:13 *398:101 9.41704e-05
7 *230:13 *400:194 0.000123824
8 *230:13 *414:87 0.000140313
9 *229:17 *230:13 0.000100024
*RES
1 sstream_i[94] *230:13 36.7531 
2 *230:13 *1800:D_N 23 
*END

*D_NET *231 0.00397903
*CONN
*P sstream_i[95] I
*I *2002:A I *D sky130_fd_sc_hd__clkbuf_4
*CAP
1 sstream_i[95] 0.00149508
2 *2002:A 0
3 *231:17 0.00149508
4 *231:17 *1799:B 5.3304e-05
5 *231:17 *232:13 0.000100024
6 *231:17 *237:16 0.000278596
7 *231:17 *348:6 4.49877e-05
8 *231:17 *388:89 3.47781e-05
9 *231:17 *388:102 0.000237851
10 *231:17 *416:10 0.000140308
11 *230:13 *231:17 9.90348e-05
*RES
1 sstream_i[95] *231:17 31.6013 
2 *231:17 *2002:A 23 
*END

*D_NET *232 0.00210082
*CONN
*P sstream_i[96] I
*I *1801:D_N I *D sky130_fd_sc_hd__nor4b_1
*CAP
1 sstream_i[96] 0.000881563
2 *1801:D_N 0
3 *232:13 0.000881563
4 *232:13 *1801:A 0.000137651
5 *232:13 *233:13 0.000100024
6 *231:17 *232:13 0.000100024
*RES
1 sstream_i[96] *232:13 36.7531 
2 *232:13 *1801:D_N 23 
*END

*D_NET *233 0.00172609
*CONN
*P sstream_i[97] I
*I *1802:D_N I *D sky130_fd_sc_hd__nor4b_1
*CAP
1 sstream_i[97] 0.000756755
2 *1802:D_N 0
3 *233:13 0.000756755
4 *233:13 *234:13 9.90348e-05
5 *233:13 *414:122 1.3523e-05
6 *232:13 *233:13 0.000100024
*RES
1 sstream_i[97] *233:13 34.3709 
2 *233:13 *1802:D_N 23 
*END

*D_NET *234 0.00212167
*CONN
*P sstream_i[98] I
*I *1803:D_N I *D sky130_fd_sc_hd__nor4b_1
*CAP
1 sstream_i[98] 0.000855044
2 *1803:D_N 0
3 *234:13 0.000855044
4 *234:13 *1803:A 1.24376e-05
5 *234:13 *1803:C 9.41704e-05
6 *234:13 *235:19 0.000100024
7 *234:13 *414:122 0.000105913
8 *233:13 *234:13 9.90348e-05
*RES
1 sstream_i[98] *234:13 36.7531 
2 *234:13 *1803:D_N 23 
*END

*D_NET *235 0.00217728
*CONN
*P sstream_i[99] I
*I *1804:D_N I *D sky130_fd_sc_hd__nor4b_1
*CAP
1 sstream_i[99] 0.000890048
2 *1804:D_N 0
3 *235:19 0.000890048
4 *235:19 *398:166 0.000144501
5 *235:19 *416:31 5.26314e-05
6 *122:15 *235:19 0.000100024
7 *234:13 *235:19 0.000100024
*RES
1 sstream_i[99] *235:19 28.9475 
2 *235:19 *1804:D_N 23 
*END

*D_NET *236 0.00162732
*CONN
*P sstream_i[9] I
*I *1717:D_N I *D sky130_fd_sc_hd__nor4b_1
*CAP
1 sstream_i[9] 0.000713636
2 *1717:D_N 0
3 *236:13 0.000713636
4 *132:13 *236:13 0.000100024
5 *225:17 *236:13 0.000100024
*RES
1 sstream_i[9] *236:13 34.3709 
2 *236:13 *1717:D_N 23 
*END

*D_NET *237 0.0360658
*CONN
*P sstream_o O
*I *1941:X O *D sky130_fd_sc_hd__buf_12
*CAP
1 sstream_o 0.00114172
2 *1941:X 0.00127891
3 *237:16 0.00545724
4 *237:14 0.00566693
5 *237:10 0.00135141
6 *237:8 0.00127891
7 *237:8 *1766:B 2.18506e-05
8 *237:8 *1766:C 0.000189208
9 *237:8 *1880:RESET_B 2.34771e-05
10 *237:8 *309:18 5.97265e-06
11 *237:8 *310:12 5.46826e-05
12 *237:14 *1766:C 0.000260707
13 *237:14 *1952:A 0.000356531
14 *237:14 *324:10 0.000219882
15 *237:14 *362:14 0.000613814
16 *237:14 *380:12 0
17 *237:14 *386:25 9.92986e-05
18 *237:14 *386:29 9.3465e-05
19 *237:14 *386:33 0.000277705
20 *237:14 *386:107 0.000420343
21 *237:14 *386:116 0.000249909
22 *237:14 *386:129 0.000218962
23 *237:14 *386:144 2.86934e-06
24 *237:14 *396:16 0.000159938
25 *237:14 *396:40 0.000208818
26 *237:14 *396:55 0.0002129
27 *237:14 *396:68 0.000262178
28 *237:14 *396:83 0.000312367
29 *237:14 *396:121 0.000299767
30 *237:14 *396:158 0.000110373
31 *237:14 *400:152 0.000135375
32 *237:14 *416:126 0
33 *237:16 *1787:C 0.000197479
34 *237:16 *1791:C 0.000169683
35 *237:16 *1792:A 0.000126548
36 *237:16 *1792:B 0.000100533
37 *237:16 *1800:B 2.46922e-05
38 *237:16 *1809:A 5.79413e-06
39 *237:16 *1811:A 1.47563e-05
40 *237:16 *1906:CLK 0
41 *237:16 *1935:CLK 0
42 *237:16 *254:12 0
43 *237:16 *255:10 0
44 *237:16 *363:16 3.16567e-05
45 *237:16 *369:20 0
46 *237:16 *370:64 0
47 *237:16 *370:101 0
48 *237:16 *370:116 0
49 *237:16 *386:170 3.66226e-05
50 *237:16 *387:22 2.60152e-05
51 *237:16 *388:40 7.70141e-05
52 *237:16 *388:53 0.000121635
53 *237:16 *388:68 0.000428411
54 *237:16 *388:89 5.7969e-05
55 *237:16 *388:102 1.35518e-05
56 *237:16 *388:119 0.000378435
57 *237:16 *388:134 0.000250781
58 *237:16 *388:155 2.34898e-05
59 *237:16 *388:185 0.0020789
60 *237:16 *388:218 0.000119451
61 *237:16 *389:120 0.000194894
62 *237:16 *389:137 0.000211607
63 *237:16 *396:206 0.000274543
64 *237:16 *396:215 0.000271382
65 *237:16 *397:30 0.00021039
66 *237:16 *397:43 0.000141879
67 *237:16 *397:52 0.000244636
68 *237:16 *397:67 0.000193379
69 *237:16 *397:76 0.000244283
70 *237:16 *397:91 0.000189679
71 *237:16 *397:100 0.000239411
72 *237:16 *397:124 0
73 *237:16 *398:16 0.000243596
74 *237:16 *398:56 1.12487e-05
75 *237:16 *398:71 0.000220356
76 *237:16 *398:101 0.000166522
77 *237:16 *398:141 0.00021356
78 *237:16 *398:154 0.000216721
79 *237:16 *398:201 0.000169665
80 *237:16 *399:36 0.000135709
81 *237:16 *399:55 7.32852e-07
82 *237:16 *399:82 0
83 *237:16 *399:107 0.000192077
84 *237:16 *399:126 0.000260319
85 *237:16 *400:152 2.05503e-05
86 *237:16 *400:162 0
87 *237:16 *400:194 2.0385e-05
88 *237:16 *400:231 6.53609e-05
89 *237:16 *412:23 0.000206577
90 *237:16 *412:25 0.000131744
91 *237:16 *412:27 0.000186025
92 *237:16 *412:35 0.00122934
93 *237:16 *413:29 1.88972e-05
94 *237:16 *413:31 1.54891e-05
95 *237:16 *413:33 9.8445e-05
96 *237:16 *413:41 8.93663e-05
97 *237:16 *413:60 0.000166522
98 *237:16 *414:21 8.9102e-05
99 *237:16 *414:23 0.000103019
100 *237:16 *414:25 0.000105072
101 *237:16 *414:27 7.45278e-05
102 *237:16 *414:93 0.000185666
103 *237:16 *414:110 6.79006e-05
104 *237:16 *414:126 0.000256843
105 *237:16 *414:138 0.000576468
106 *237:16 *414:173 1.43921e-05
107 *237:16 *416:120 0
108 *1792:D_N *237:16 5.05059e-05
109 *73:8 *237:8 6.73055e-05
110 *126:15 *237:16 0.00060512
111 *128:19 *237:16 0.000386614
112 *134:15 *237:16 0.000229305
113 *137:17 sstream_o 4.57745e-06
114 *138:13 sstream_o 9.90348e-05
115 *191:17 *237:14 3.87221e-06
116 *196:17 *237:14 0.000352207
117 *199:15 *237:14 8.81496e-05
118 *201:17 *237:14 2.5723e-05
119 *204:15 *237:14 2.80291e-05
120 *204:15 *237:16 0.000174664
121 *206:17 *237:16 1.99174e-05
122 *210:15 *237:16 0.000179321
123 *227:15 *237:16 0.00023561
124 *231:17 *237:16 0.000278596
*RES
1 *1941:X *237:8 40.6693 
2 *237:8 *237:10 15 
3 *237:10 *237:14 38.6218 
4 *237:14 *237:16 123.395 
5 *237:16 sstream_o 11.2256 
*END

*D_NET *240 0.00143699
*CONN
*I *1822:D I *D sky130_fd_sc_hd__dfrtp_4
*I *1708:Y O *D sky130_fd_sc_hd__nor4b_1
*CAP
1 *1822:D 0
2 *1708:Y 0.000456412
3 *240:12 0.000456412
4 *240:12 *1710:A 7.86509e-06
5 *240:12 *1710:C 0.000350754
6 *240:12 *1822:CLK 7.03089e-05
7 *240:12 *278:12 7.20825e-05
8 *159:17 *240:12 2.31591e-05
*RES
1 *1708:Y *240:12 31.6586 
2 *240:12 *1822:D 23 
*END

*D_NET *241 0.000266584
*CONN
*I *1922:D I *D sky130_fd_sc_hd__dfrtp_4
*I *1805:Y O *D sky130_fd_sc_hd__nor4b_1
*CAP
1 *1922:D 6.61046e-05
2 *1805:Y 6.61046e-05
3 *1922:D *1922:CLK 3.22467e-05
4 *1922:D *356:147 0.000102128
*RES
1 *1805:Y *1922:D 48.0507 
*END

*D_NET *242 0.000956507
*CONN
*I *1923:D I *D sky130_fd_sc_hd__dfrtp_4
*I *1806:Y O *D sky130_fd_sc_hd__nor4b_1
*CAP
1 *1923:D 0
2 *1806:Y 0.000281563
3 *242:10 0.000281563
4 *242:10 *1806:C 2.93431e-05
5 *242:10 *1923:CLK 6.04017e-05
6 *242:10 *1985:A 0.000274237
7 *242:10 *399:6 2.93985e-05
*RES
1 *1806:Y *242:10 29.5043 
2 *242:10 *1923:D 23 
*END

*D_NET *243 0.000280502
*CONN
*I *1924:D I *D sky130_fd_sc_hd__dfrtp_4
*I *1807:Y O *D sky130_fd_sc_hd__nor4b_1
*CAP
1 *1924:D 0.000125584
2 *1807:Y 0.000125584
3 *1924:D *1924:CLK 2.93335e-05
*RES
1 *1807:Y *1924:D 48.0507 
*END

*D_NET *244 0.000848336
*CONN
*I *1925:D I *D sky130_fd_sc_hd__dfrtp_4
*I *1808:Y O *D sky130_fd_sc_hd__nor4b_1
*CAP
1 *1925:D 0
2 *1808:Y 0.000370034
3 *244:6 0.000370034
4 *244:6 *1808:C 2.93747e-05
5 *244:6 *1925:CLK 7.88926e-05
*RES
1 *1808:Y *244:6 29.3386 
2 *244:6 *1925:D 23 
*END

*D_NET *245 0.00192976
*CONN
*I *1926:D I *D sky130_fd_sc_hd__dfrtp_4
*I *1809:Y O *D sky130_fd_sc_hd__nor4b_1
*CAP
1 *1926:D 0.000185121
2 *1809:Y 0.000308912
3 *245:10 0.000494033
4 *1926:D *1926:CLK 8.33062e-05
5 *1926:D *1956:A 0.000177601
6 *1926:D *370:10 0.00011906
7 *245:10 *399:55 0.000163858
8 *245:10 *399:74 9.96055e-05
9 *126:15 *245:10 0.000298267
*RES
1 *1809:Y *245:10 44.0693 
2 *245:10 *1926:D 43.4479 
*END

*D_NET *246 0.000884535
*CONN
*I *1927:D I *D sky130_fd_sc_hd__dfrtp_4
*I *1810:Y O *D sky130_fd_sc_hd__nor4b_1
*CAP
1 *1927:D 0
2 *1810:Y 0.000418893
3 *246:6 0.000418893
4 *246:6 *399:55 4.67488e-05
*RES
1 *1810:Y *246:6 29.3386 
2 *246:6 *1927:D 23 
*END

*D_NET *247 0.00131853
*CONN
*I *1928:D I *D sky130_fd_sc_hd__dfrtp_4
*I *1811:Y O *D sky130_fd_sc_hd__nor4b_1
*CAP
1 *1928:D 3.23287e-05
2 *1811:Y 0.000239906
3 *247:10 0.000272235
4 *1928:D *1928:CLK 1.73399e-05
5 *247:10 *1930:CLK 2.0094e-05
6 *247:10 *1930:D 0.000140927
7 *247:10 *370:64 0.000435004
8 *247:10 *371:45 8.16459e-05
9 *247:10 *371:56 7.90464e-05
*RES
1 *1811:Y *247:10 45.3536 
2 *247:10 *1928:D 38.6214 
*END

*D_NET *248 0.000978362
*CONN
*I *1929:D I *D sky130_fd_sc_hd__dfrtp_4
*I *1812:Y O *D sky130_fd_sc_hd__nor4b_1
*CAP
1 *1929:D 0
2 *1812:Y 0.000419877
3 *248:6 0.000419877
4 *248:6 *399:82 0.000138607
*RES
1 *1812:Y *248:6 29.3386 
2 *248:6 *1929:D 23 
*END

*D_NET *249 0.00173248
*CONN
*I *1930:D I *D sky130_fd_sc_hd__dfrtp_4
*I *1813:Y O *D sky130_fd_sc_hd__nor4b_1
*CAP
1 *1930:D 0.000534985
2 *1813:Y 3.00042e-05
3 *249:8 0.000564989
4 *1930:D *1811:C 0.000144501
5 *1930:D *1930:CLK 4.38068e-06
6 *1930:D *399:103 0.00021677
7 *249:8 *399:92 3.64246e-05
8 *249:8 *415:107 5.94936e-05
9 *247:10 *1930:D 0.000140927
*RES
1 *1813:Y *249:8 38.8493 
2 *249:8 *1930:D 45.3121 
*END

*D_NET *250 0.0010529
*CONN
*I *1931:D I *D sky130_fd_sc_hd__dfrtp_4
*I *1814:Y O *D sky130_fd_sc_hd__nor4b_1
*CAP
1 *1931:D 0
2 *1814:Y 0.00044576
3 *250:10 0.00044576
4 *250:10 *1814:C 3.7122e-06
5 *250:10 *1931:CLK 3.71369e-05
6 *137:31 *250:10 0.000120535
*RES
1 *1814:Y *250:10 29.8564 
2 *250:10 *1931:D 23 
*END

*D_NET *251 0.00141601
*CONN
*I *1832:D I *D sky130_fd_sc_hd__dfrtp_4
*I *1718:Y O *D sky130_fd_sc_hd__nor4b_1
*CAP
1 *1832:D 0
2 *1718:Y 0.000498199
3 *251:10 0.000498199
4 *251:10 *1718:B 5.56279e-05
5 *251:10 *1720:B 0.00027154
6 *251:10 *1720:C 9.90123e-06
7 *251:10 *1832:CLK 5.25436e-05
8 *251:10 *259:12 3.00029e-05
*RES
1 *1718:Y *251:10 30.8093 
2 *251:10 *1832:D 23 
*END

*D_NET *252 0.000818866
*CONN
*I *1932:D I *D sky130_fd_sc_hd__dfrtp_4
*I *1815:Y O *D sky130_fd_sc_hd__nor4b_1
*CAP
1 *1932:D 0
2 *1815:Y 0.000332646
3 *252:6 0.000332646
4 *252:6 *1932:CLK 5.41385e-05
5 *252:6 *399:126 9.94357e-05
*RES
1 *1815:Y *252:6 28.8621 
2 *252:6 *1932:D 23 
*END

*D_NET *253 0.000260329
*CONN
*I *1933:D I *D sky130_fd_sc_hd__dfrtp_4
*I *1816:Y O *D sky130_fd_sc_hd__nor4b_1
*CAP
1 *1933:D 0.000115498
2 *1816:Y 0.000115498
3 *1933:D *1933:CLK 2.93335e-05
*RES
1 *1816:Y *1933:D 48.0507 
*END

*D_NET *254 0.00144726
*CONN
*I *1934:D I *D sky130_fd_sc_hd__dfrtp_4
*I *1817:Y O *D sky130_fd_sc_hd__nor4b_1
*CAP
1 *1934:D 0.000201814
2 *1817:Y 0.000321618
3 *254:12 0.000523432
4 *1934:D *255:10 5.4514e-05
5 *254:12 *1816:A 0.000267513
6 *254:12 *1816:B 5.79559e-05
7 *254:12 *1816:C 1.71761e-05
8 *254:12 *1933:CLK 3.23857e-06
9 *237:16 *254:12 0
*RES
1 *1817:Y *254:12 44.0071 
2 *254:12 *1934:D 41.48 
*END

*D_NET *255 0.00116126
*CONN
*I *1935:D I *D sky130_fd_sc_hd__dfrtp_4
*I *1818:Y O *D sky130_fd_sc_hd__nor4b_1
*CAP
1 *1935:D 2.72544e-05
2 *1818:Y 0.00045547
3 *255:10 0.000482725
4 *1935:D *257:8 5.50106e-05
5 *255:10 *1935:CLK 8.62876e-05
6 *1934:D *255:10 5.4514e-05
7 *237:16 *255:10 0
*RES
1 *1818:Y *255:10 44.5664 
2 *255:10 *1935:D 38.6214 
*END

*D_NET *256 0.000467972
*CONN
*I *1936:D I *D sky130_fd_sc_hd__dfrtp_4
*I *1819:Y O *D sky130_fd_sc_hd__nor4b_1
*CAP
1 *1936:D 0.000219319
2 *1819:Y 0.000219319
3 *1936:D *1936:CLK 2.93335e-05
*RES
1 *1819:Y *1936:D 49.9564 
*END

*D_NET *257 0.00275031
*CONN
*I *1937:D I *D sky130_fd_sc_hd__dfrtp_4
*I *1820:Y O *D sky130_fd_sc_hd__nor4b_1
*CAP
1 *1937:D 0
2 *1820:Y 0.00106672
3 *257:18 0.000196022
4 *257:8 0.00126275
5 *257:8 *1935:CLK 2.18926e-05
6 mstream_o[114] *257:18 0.000147913
7 *1935:D *257:8 5.50106e-05
*RES
1 *1820:Y *257:8 36.5057 
2 *257:8 *257:18 34.4329 
3 *257:18 *1937:D 23 
*END

*D_NET *258 0.00177827
*CONN
*I *1833:D I *D sky130_fd_sc_hd__dfrtp_4
*I *1719:Y O *D sky130_fd_sc_hd__nor4b_1
*CAP
1 *1833:D 0.000399807
2 *1719:Y 0.000325491
3 *258:12 0.000725298
4 *1833:D *259:12 5.56203e-05
5 *1833:D *373:10 0.000148417
6 *1833:D *401:104 0
7 *1833:D *401:118 0
8 *1833:D *401:125 0
9 *258:12 *1830:CLK 0.000107729
10 *258:12 *1830:D 1.59094e-05
*RES
1 *1719:Y *258:12 42.4743 
2 *258:12 *1833:D 46.1614 
*END

*D_NET *259 0.00143818
*CONN
*I *1834:D I *D sky130_fd_sc_hd__dfrtp_4
*I *1720:Y O *D sky130_fd_sc_hd__nor4b_1
*CAP
1 *1834:D 4.24639e-05
2 *1720:Y 0.000387707
3 *259:12 0.00043017
4 *1834:D *261:10 2.64616e-05
5 *259:12 *1720:C 5.47983e-06
6 *259:12 *1832:CLK 0.000107729
7 *259:12 *373:10 0.000352547
8 *1833:D *259:12 5.56203e-05
9 *251:10 *259:12 3.00029e-05
*RES
1 *1720:Y *259:12 45.7471 
2 *259:12 *1834:D 38.6214 
*END

*D_NET *260 0.00233962
*CONN
*I *1835:D I *D sky130_fd_sc_hd__dfrtp_4
*I *1721:Y O *D sky130_fd_sc_hd__nor4b_1
*CAP
1 *1835:D 0.000177108
2 *1721:Y 0.000526915
3 *260:10 0.000704022
4 *1835:D *1835:CLK 0.000135037
5 *1835:D *358:6 9.2964e-05
6 *1835:D *374:8 9.41704e-05
7 *260:10 *1722:C 0.000357566
8 *260:10 *1834:CLK 6.17437e-06
9 *260:10 *261:10 9.20974e-06
10 *260:10 *372:47 9.28078e-06
11 *260:10 *372:60 0.000227176
12 *260:10 *382:14 0
13 *142:17 *260:10 0
*RES
1 *1721:Y *260:10 46.7 
2 *260:10 *1835:D 41.48 
*END

*D_NET *261 0.00138572
*CONN
*I *1836:D I *D sky130_fd_sc_hd__dfrtp_4
*I *1722:Y O *D sky130_fd_sc_hd__nor4b_1
*CAP
1 *1836:D 4.90489e-05
2 *1722:Y 0.000419153
3 *261:10 0.000468202
4 *1836:D *373:8 6.17437e-06
5 *261:10 *1834:CLK 2.64616e-05
6 *261:10 *373:10 0.000318429
7 *261:10 *373:34 6.25829e-05
8 *1834:D *261:10 2.64616e-05
9 *260:10 *261:10 9.20974e-06
*RES
1 *1722:Y *261:10 45.6021 
2 *261:10 *1836:D 38.6214 
*END

*D_NET *262 0.000896085
*CONN
*I *1837:D I *D sky130_fd_sc_hd__dfrtp_4
*I *1723:Y O *D sky130_fd_sc_hd__nor4b_1
*CAP
1 *1837:D 0
2 *1723:Y 0.000379671
3 *262:10 0.000379671
4 *262:10 *1837:CLK 0.000136743
*RES
1 *1723:Y *262:10 29.9807 
2 *262:10 *1837:D 23 
*END

*D_NET *263 0.00123828
*CONN
*I *1838:D I *D sky130_fd_sc_hd__dfrtp_4
*I *1724:Y O *D sky130_fd_sc_hd__nor4b_1
*CAP
1 *1838:D 0
2 *1724:Y 0.000431911
3 *263:10 0.000431911
4 *263:10 *1724:A 5.56279e-05
5 *263:10 *1725:B 1.59071e-05
6 *263:10 *1725:C 1.08287e-05
7 *263:10 *1838:CLK 5.40876e-05
8 *263:10 *264:12 2.81043e-05
9 *263:10 *392:46 0.000209902
*RES
1 *1724:Y *263:10 30.4571 
2 *263:10 *1838:D 23 
*END

*D_NET *264 0.000900099
*CONN
*I *1839:D I *D sky130_fd_sc_hd__dfrtp_4
*I *1725:Y O *D sky130_fd_sc_hd__nor4b_1
*CAP
1 *1839:D 0
2 *1725:Y 0.000353608
3 *264:12 0.000353608
4 *264:12 *1725:C 1.8788e-05
5 *264:12 *1838:CLK 0.000110337
6 *264:12 *373:34 3.56537e-05
7 *264:12 *401:166 0
8 *263:10 *264:12 2.81043e-05
*RES
1 *1725:Y *264:12 43.5307 
2 *264:12 *1839:D 38 
*END

*D_NET *265 0.000303957
*CONN
*I *1840:D I *D sky130_fd_sc_hd__dfrtp_4
*I *1726:Y O *D sky130_fd_sc_hd__nor4b_1
*CAP
1 *1840:D 0.000135285
2 *1726:Y 0.000135285
3 *1840:D *1840:CLK 3.33879e-05
*RES
1 *1726:Y *1840:D 48.0507 
*END

*D_NET *266 0.000678914
*CONN
*I *1841:D I *D sky130_fd_sc_hd__dfrtp_4
*I *1727:Y O *D sky130_fd_sc_hd__nor4b_1
*CAP
1 *1841:D 0
2 *1727:Y 0.000326226
3 *266:6 0.000326226
4 *266:6 *1841:CLK 2.64616e-05
*RES
1 *1727:Y *266:6 28.3857 
2 *266:6 *1841:D 23 
*END

*D_NET *267 0.00107604
*CONN
*I *1823:D I *D sky130_fd_sc_hd__dfrtp_4
*I *1709:Y O *D sky130_fd_sc_hd__nor4b_1
*CAP
1 *1823:D 0
2 *1709:Y 0.00049798
3 *267:6 0.00049798
4 *267:6 *1709:C 2.93335e-05
5 *267:6 *1823:CLK 2.93747e-05
6 *267:6 *381:120 2.13733e-05
*RES
1 *1709:Y *267:6 30.7679 
2 *267:6 *1823:D 23 
*END

*D_NET *268 0.000362092
*CONN
*I *1842:D I *D sky130_fd_sc_hd__dfrtp_4
*I *1728:Y O *D sky130_fd_sc_hd__nor4b_1
*CAP
1 *1842:D 0.000144025
2 *1728:Y 0.000144025
3 *1842:D *1728:B 3.23857e-06
4 *1842:D *1728:C 5.47983e-06
5 *1842:D *1842:CLK 6.53225e-05
*RES
1 *1728:Y *1842:D 48.5479 
*END

*D_NET *269 0.00071189
*CONN
*I *1843:D I *D sky130_fd_sc_hd__dfrtp_4
*I *1729:Y O *D sky130_fd_sc_hd__nor4b_1
*CAP
1 *1843:D 0
2 *1729:Y 0.000355945
3 *269:6 0.000355945
*RES
1 *1729:Y *269:6 28.3857 
2 *269:6 *1843:D 23 
*END

*D_NET *270 0.000313276
*CONN
*I *1844:D I *D sky130_fd_sc_hd__dfrtp_4
*I *1730:Y O *D sky130_fd_sc_hd__nor4b_1
*CAP
1 *1844:D 0.000119451
2 *1730:Y 0.000119451
3 *1844:D *1844:CLK 5.40876e-05
4 *1844:D *374:88 2.02872e-05
*RES
1 *1730:Y *1844:D 48.0507 
*END

*D_NET *271 0.000767266
*CONN
*I *1845:D I *D sky130_fd_sc_hd__dfrtp_4
*I *1731:Y O *D sky130_fd_sc_hd__nor4b_1
*CAP
1 *1845:D 0
2 *1731:Y 0.000383633
3 *271:6 0.000383633
*RES
1 *1731:Y *271:6 28.8621 
2 *271:6 *1845:D 23 
*END

*D_NET *272 0.000286437
*CONN
*I *1846:D I *D sky130_fd_sc_hd__dfrtp_4
*I *1732:Y O *D sky130_fd_sc_hd__nor4b_1
*CAP
1 *1846:D 0.000124815
2 *1732:Y 0.000124815
3 *1846:D *1846:CLK 3.68075e-05
*RES
1 *1732:Y *1846:D 48.0507 
*END

*D_NET *273 0.000843717
*CONN
*I *1847:D I *D sky130_fd_sc_hd__dfrtp_4
*I *1733:Y O *D sky130_fd_sc_hd__nor4b_1
*CAP
1 *1847:D 0
2 *1733:Y 0.000360701
3 *273:6 0.000360701
4 *273:6 *390:43 2.13733e-05
5 *273:6 *390:45 4.46439e-05
6 *273:6 *390:53 5.62977e-05
*RES
1 *1733:Y *273:6 29.3386 
2 *273:6 *1847:D 23 
*END

*D_NET *274 0.000260329
*CONN
*I *1848:D I *D sky130_fd_sc_hd__dfrtp_4
*I *1734:Y O *D sky130_fd_sc_hd__nor4b_1
*CAP
1 *1848:D 0.000115498
2 *1734:Y 0.000115498
3 *1848:D *1848:CLK 2.93335e-05
*RES
1 *1734:Y *1848:D 48.0507 
*END

*D_NET *275 0.000731729
*CONN
*I *1849:D I *D sky130_fd_sc_hd__dfrtp_4
*I *1735:Y O *D sky130_fd_sc_hd__nor4b_1
*CAP
1 *1849:D 0
2 *1735:Y 0.000286286
3 *275:6 0.000286286
4 *275:6 *1849:CLK 5.41288e-05
5 *275:6 *1968:A 2.63049e-05
6 *275:6 *382:8 7.87243e-05
*RES
1 *1735:Y *275:6 28.3857 
2 *275:6 *1849:D 23 
*END

*D_NET *276 0.000257146
*CONN
*I *1850:D I *D sky130_fd_sc_hd__dfrtp_4
*I *1736:Y O *D sky130_fd_sc_hd__nor4b_1
*CAP
1 *1850:D 0.000128573
2 *1736:Y 0.000128573
*RES
1 *1736:Y *1850:D 48.0507 
*END

*D_NET *277 0.000640968
*CONN
*I *1851:D I *D sky130_fd_sc_hd__dfrtp_4
*I *1737:Y O *D sky130_fd_sc_hd__nor4b_1
*CAP
1 *1851:D 0
2 *1737:Y 0.000248676
3 *277:6 0.000248676
4 *277:6 *433:DIODE 3.24862e-05
5 *277:6 *1737:A 3.22465e-05
6 *277:6 *1851:CLK 7.88828e-05
*RES
1 *1737:Y *277:6 27.9093 
2 *277:6 *1851:D 23 
*END

*D_NET *278 0.00126363
*CONN
*I *1824:D I *D sky130_fd_sc_hd__dfrtp_4
*I *1710:Y O *D sky130_fd_sc_hd__nor4b_1
*CAP
1 *1824:D 0
2 *1710:Y 0.000333965
3 *278:12 0.000333965
4 *278:12 *1822:CLK 0.000458803
5 *278:12 *311:10 6.48142e-05
6 *240:12 *278:12 7.20825e-05
*RES
1 *1710:Y *278:12 45.2707 
2 *278:12 *1824:D 38 
*END

*D_NET *279 0.000254064
*CONN
*I *1852:D I *D sky130_fd_sc_hd__dfrtp_4
*I *1738:Y O *D sky130_fd_sc_hd__nor4b_1
*CAP
1 *1852:D 0.000110909
2 *1738:Y 0.000110909
3 *1852:D *1852:CLK 3.22467e-05
*RES
1 *1738:Y *1852:D 48.0507 
*END

*D_NET *280 0.000363332
*CONN
*I *1853:D I *D sky130_fd_sc_hd__dfrtp_4
*I *1940:LO O *D sky130_fd_sc_hd__conb_1
*CAP
1 *1853:D 0.00013357
2 *1940:LO 0.00013357
3 *1853:D *1853:RESET_B 9.61927e-05
*RES
1 *1940:LO *1853:D 48.5479 
*END

*D_NET *281 0.000707531
*CONN
*I *1854:D I *D sky130_fd_sc_hd__dfrtp_4
*I *1739:Y O *D sky130_fd_sc_hd__nor4b_1
*CAP
1 *1854:D 0
2 *1739:Y 0.000220573
3 *281:10 0.000220573
4 *281:10 *1739:C 9.84794e-05
5 *281:10 *1852:CLK 6.93449e-05
6 *281:10 *283:10 6.48142e-05
7 *281:10 *390:37 3.3746e-05
*RES
1 *1739:Y *281:10 41.9564 
2 *281:10 *1854:D 38 
*END

*D_NET *282 0.000893895
*CONN
*I *1855:D I *D sky130_fd_sc_hd__dfrtp_4
*I *1740:Y O *D sky130_fd_sc_hd__nor4b_1
*CAP
1 *1855:D 0
2 *1740:Y 0.000379166
3 *282:6 0.000379166
4 *282:6 *1740:B 5.3304e-05
5 *282:6 *1855:CLK 5.41385e-05
6 *282:6 *394:57 2.812e-05
*RES
1 *1740:Y *282:6 28.8621 
2 *282:6 *1855:D 23 
*END

*D_NET *283 0.0016618
*CONN
*I *1856:D I *D sky130_fd_sc_hd__dfrtp_4
*I *1741:Y O *D sky130_fd_sc_hd__nor4b_1
*CAP
1 *1856:D 4.67281e-05
2 *1741:Y 0.000405375
3 *283:10 0.000452103
4 *1856:D *285:10 6.17437e-06
5 *283:10 *1852:CLK 2.72055e-05
6 *283:10 *1854:CLK 1.2026e-05
7 *283:10 *285:10 6.25829e-05
8 *283:10 *378:37 4.06408e-05
9 *283:10 *378:39 5.26204e-05
10 *283:10 *390:37 0.000491534
11 *281:10 *283:10 6.48142e-05
*RES
1 *1741:Y *283:10 47.0107 
2 *283:10 *1856:D 38.6214 
*END

*D_NET *284 0.000926265
*CONN
*I *1857:D I *D sky130_fd_sc_hd__dfrtp_4
*I *1742:Y O *D sky130_fd_sc_hd__nor4b_1
*CAP
1 *1857:D 0
2 *1742:Y 0.000397832
3 *284:6 0.000397832
4 *284:6 *1742:B 5.3304e-05
5 *284:6 *376:27 7.72975e-05
*RES
1 *1742:Y *284:6 29.3386 
2 *284:6 *1857:D 23 
*END

*D_NET *285 0.00133409
*CONN
*I *1858:D I *D sky130_fd_sc_hd__dfrtp_4
*I *1743:Y O *D sky130_fd_sc_hd__nor4b_1
*CAP
1 *1858:D 0
2 *1743:Y 0.000342054
3 *285:10 0.000342054
4 *285:10 *1856:CLK 1.2026e-05
5 *285:10 *376:14 0.000199701
6 *285:10 *378:35 0.000180401
7 *285:10 *378:37 7.38945e-05
8 *285:10 *390:37 0.000115207
9 *1856:D *285:10 6.17437e-06
10 *283:10 *285:10 6.25829e-05
*RES
1 *1743:Y *285:10 46.5343 
2 *285:10 *1858:D 38 
*END

*D_NET *286 0.000795135
*CONN
*I *1859:D I *D sky130_fd_sc_hd__dfrtp_4
*I *1744:Y O *D sky130_fd_sc_hd__nor4b_1
*CAP
1 *1859:D 0
2 *1744:Y 0.000369644
3 *286:6 0.000369644
4 *286:6 *1744:B 2.64616e-05
5 *286:6 *1859:CLK 2.93845e-05
*RES
1 *1744:Y *286:6 28.3857 
2 *286:6 *1859:D 23 
*END

*D_NET *287 0.00122345
*CONN
*I *1860:D I *D sky130_fd_sc_hd__dfrtp_4
*I *1745:Y O *D sky130_fd_sc_hd__nor4b_1
*CAP
1 *1860:D 0
2 *1745:Y 0.000339256
3 *287:12 0.000339256
4 *287:12 *1745:B 1.11037e-05
5 *287:12 *376:14 0.000354778
6 *287:12 *378:20 9.98995e-05
7 *287:12 *378:22 7.91596e-05
*RES
1 *1745:Y *287:12 45.2707 
2 *287:12 *1860:D 38 
*END

*D_NET *288 0.000850187
*CONN
*I *1861:D I *D sky130_fd_sc_hd__dfrtp_4
*I *1746:Y O *D sky130_fd_sc_hd__nor4b_1
*CAP
1 *1861:D 0
2 *1746:Y 0.000338126
3 *288:6 0.000338126
4 *288:6 *1746:B 5.3304e-05
5 *288:6 *1861:CLK 2.64616e-05
6 *288:6 *291:20 9.41704e-05
*RES
1 *1746:Y *288:6 28.3857 
2 *288:6 *1861:D 23 
*END

*D_NET *289 0.00185643
*CONN
*I *1825:D I *D sky130_fd_sc_hd__dfrtp_4
*I *1711:Y O *D sky130_fd_sc_hd__nor4b_1
*CAP
1 *1825:D 0.000270137
2 *1711:Y 0.000376162
3 *289:14 0.000646298
4 *1825:D *1825:CLK 2.79662e-05
5 *1825:D *372:10 5.3304e-05
6 *289:14 *1713:A 2.47127e-05
7 *289:14 *1713:B 0.000102389
8 *289:14 *1713:C 1.10658e-05
9 *289:14 *1823:CLK 8.29264e-05
10 *289:14 *1824:CLK 3.2623e-05
11 *289:14 *311:10 5.43506e-06
12 *289:14 *381:90 0
13 *192:21 *289:14 0.000223408
*RES
1 *1711:Y *289:14 45.2293 
2 *289:14 *1825:D 41.5007 
*END

*D_NET *290 0.00125949
*CONN
*I *1862:D I *D sky130_fd_sc_hd__dfrtp_4
*I *1747:Y O *D sky130_fd_sc_hd__nor4b_1
*CAP
1 *1862:D 0
2 *1747:Y 0.000319936
3 *290:10 0.000319936
4 *290:10 *1747:B 0.00026614
5 *290:10 *1749:A 0.000178517
6 *290:10 *1749:B 2.31687e-05
7 *290:10 *1749:C 1.08287e-05
8 *290:10 *292:10 9.31181e-05
9 *290:10 *403:42 4.78497e-05
*RES
1 *1747:Y *290:10 30.4571 
2 *290:10 *1862:D 23 
*END

*D_NET *291 0.002112
*CONN
*I *1863:D I *D sky130_fd_sc_hd__dfrtp_4
*I *1748:Y O *D sky130_fd_sc_hd__nor4b_1
*CAP
1 *1863:D 0.000200603
2 *1748:Y 0.000136921
3 *291:20 0.000480495
4 *291:12 0.000416813
5 *291:12 *1748:B 3.23857e-06
6 *291:12 *1860:CLK 3.80661e-05
7 *291:12 *378:18 7.2918e-05
8 *291:12 *378:20 1.00084e-05
9 *291:20 *292:10 0.000139657
10 *291:20 *376:14 0.000156071
11 *291:20 *378:10 7.50825e-05
12 *291:20 *378:16 0.000200739
13 *291:20 *378:18 8.72173e-05
14 *288:6 *291:20 9.41704e-05
*RES
1 *1748:Y *291:12 40.32 
2 *291:12 *291:20 37.2293 
3 *291:20 *1863:D 40.5271 
*END

*D_NET *292 0.00120707
*CONN
*I *1864:D I *D sky130_fd_sc_hd__dfrtp_4
*I *1749:Y O *D sky130_fd_sc_hd__nor4b_1
*CAP
1 *1864:D 0
2 *1749:Y 0.000297436
3 *292:10 0.000297436
4 *292:10 *376:10 0.00015822
5 *292:10 *376:14 0.000166532
6 *292:10 *376:43 5.46706e-05
7 *290:10 *292:10 9.31181e-05
8 *291:20 *292:10 0.000139657
*RES
1 *1749:Y *292:10 45.1257 
2 *292:10 *1864:D 38 
*END

*D_NET *293 0.000941831
*CONN
*I *1865:D I *D sky130_fd_sc_hd__dfrtp_4
*I *1750:Y O *D sky130_fd_sc_hd__nor4b_1
*CAP
1 *1865:D 0
2 *1750:Y 0.000306294
3 *293:6 0.000306294
4 *293:6 *1865:CLK 5.50106e-05
5 *293:6 *1981:A 0.000274234
*RES
1 *1750:Y *293:6 28.3857 
2 *293:6 *1865:D 23 
*END

*D_NET *294 0.00142527
*CONN
*I *1866:D I *D sky130_fd_sc_hd__dfrtp_4
*I *1751:Y O *D sky130_fd_sc_hd__nor4b_1
*CAP
1 *1866:D 0
2 *1751:Y 0.000527736
3 *294:14 0.000527736
4 *294:14 *1751:A 5.56279e-05
5 *294:14 *1751:B 9.64943e-05
6 *294:14 *1751:C 1.56542e-05
7 *294:14 *1753:A 5.86015e-06
8 *294:14 *296:10 0.000101988
9 *177:17 *294:14 9.41704e-05
*RES
1 *1751:Y *294:14 32.1557 
2 *294:14 *1866:D 23 
*END

*D_NET *295 0.000958597
*CONN
*I *1867:D I *D sky130_fd_sc_hd__dfrtp_4
*I *1752:Y O *D sky130_fd_sc_hd__nor4b_1
*CAP
1 *1867:D 0
2 *1752:Y 0.00033319
3 *295:6 0.00033319
4 *295:6 *376:49 2.64616e-05
5 *295:6 *376:57 7.15126e-05
6 *295:6 *385:77 5.56356e-05
7 *295:6 *395:51 0.000138607
*RES
1 *1752:Y *295:6 28.8621 
2 *295:6 *1867:D 23 
*END

*D_NET *296 0.0012509
*CONN
*I *1868:D I *D sky130_fd_sc_hd__dfrtp_4
*I *1753:Y O *D sky130_fd_sc_hd__nor4b_1
*CAP
1 *1868:D 0
2 *1753:Y 0.000293476
3 *296:10 0.000293476
4 *296:10 *1869:CLK 5.46706e-05
5 *296:10 *376:43 0.000114092
6 *296:10 *376:71 0.000207507
7 *296:10 *377:12 0.000185686
8 *294:14 *296:10 0.000101988
*RES
1 *1753:Y *296:10 45.1257 
2 *296:10 *1868:D 38 
*END

*D_NET *297 0.0010849
*CONN
*I *1869:D I *D sky130_fd_sc_hd__dfrtp_4
*I *1754:Y O *D sky130_fd_sc_hd__nor4b_1
*CAP
1 *1869:D 0
2 *1754:Y 0.000401043
3 *297:6 0.000401043
4 *297:6 *359:6 0.000282815
*RES
1 *1754:Y *297:6 28.7638 
2 *297:6 *1869:D 23 
*END

*D_NET *298 0.00119618
*CONN
*I *1870:D I *D sky130_fd_sc_hd__dfrtp_4
*I *1755:Y O *D sky130_fd_sc_hd__nor4b_1
*CAP
1 *1870:D 0
2 *1755:Y 0.000275866
3 *298:10 0.000275866
4 *298:10 *1868:CLK 3.33993e-05
5 *298:10 *1869:CLK 0.000110922
6 *298:10 *360:10 0.000184407
7 *298:10 *377:12 0.000185666
8 *298:10 *390:37 0.000130056
*RES
1 *1755:Y *298:10 45.1257 
2 *298:10 *1870:D 38 
*END

*D_NET *299 0.0008759
*CONN
*I *1871:D I *D sky130_fd_sc_hd__dfrtp_4
*I *1756:Y O *D sky130_fd_sc_hd__nor4b_1
*CAP
1 *1871:D 0
2 *1756:Y 0.000431731
3 *299:6 0.000431731
4 *299:6 *1756:B 1.24376e-05
*RES
1 *1756:Y *299:6 29.3386 
2 *299:6 *1871:D 23 
*END

*D_NET *300 0.00157289
*CONN
*I *1826:D I *D sky130_fd_sc_hd__dfrtp_4
*I *1712:Y O *D sky130_fd_sc_hd__nor4b_1
*CAP
1 *1826:D 0
2 *1712:Y 0.000657521
3 *300:12 0.000657521
4 *300:12 *1827:CLK 2.81066e-05
5 *300:12 *311:10 0.000110913
6 *300:12 *365:21 1.01436e-05
7 *300:12 *365:49 0.000108681
*RES
1 *1712:Y *300:12 46.8657 
2 *300:12 *1826:D 38 
*END

*D_NET *301 0.00127801
*CONN
*I *1872:D I *D sky130_fd_sc_hd__dfrtp_4
*I *1757:Y O *D sky130_fd_sc_hd__nor4b_1
*CAP
1 *1872:D 0
2 *1757:Y 0.000286805
3 *301:12 0.000286805
4 *301:12 *1757:C 1.8788e-05
5 *301:12 *1870:CLK 0.000319433
6 *301:12 *375:16 0.000188256
7 *301:12 *377:12 0.000177925
*RES
1 *1757:Y *301:12 45.2707 
2 *301:12 *1872:D 38 
*END

*D_NET *302 0.00212477
*CONN
*I *1873:D I *D sky130_fd_sc_hd__dfrtp_4
*I *1758:Y O *D sky130_fd_sc_hd__nor4b_1
*CAP
1 *1873:D 0.000220673
2 *1758:Y 0.000421842
3 *302:10 0.000642515
4 *1873:D *428:DIODE 9.41704e-05
5 *1873:D *377:10 5.3304e-05
6 *302:10 *1758:B 0.00022623
7 *302:10 *1758:C 0.000185364
8 *302:10 *1759:C 2.16575e-05
9 *302:10 *1872:CLK 3.7122e-06
10 *302:10 *303:12 9.87385e-06
11 *302:10 *377:12 0.000186206
12 *302:10 *377:36 2.4306e-05
13 *302:10 *385:25 0
14 *302:10 *411:30 1.46286e-05
15 *184:17 *302:10 2.02872e-05
*RES
1 *1758:Y *302:10 46.3479 
2 *302:10 *1873:D 41.48 
*END

*D_NET *303 0.00132424
*CONN
*I *1874:D I *D sky130_fd_sc_hd__dfrtp_4
*I *1759:Y O *D sky130_fd_sc_hd__nor4b_1
*CAP
1 *1874:D 0
2 *1759:Y 0.000305372
3 *303:12 0.000305372
4 *303:12 *1759:C 1.8788e-05
5 *303:12 *1872:CLK 0.000150586
6 *303:12 *375:12 0.000188256
7 *303:12 *375:14 0.000153208
8 *303:12 *375:16 1.01436e-05
9 *303:12 *377:12 3.83778e-05
10 *303:12 *377:36 0.000111148
11 *303:12 *377:49 3.31127e-05
12 *302:10 *303:12 9.87385e-06
*RES
1 *1759:Y *303:12 45.2707 
2 *303:12 *1874:D 38 
*END

*D_NET *304 0.000845193
*CONN
*I *1875:D I *D sky130_fd_sc_hd__dfrtp_4
*I *1760:Y O *D sky130_fd_sc_hd__nor4b_1
*CAP
1 *1875:D 0
2 *1760:Y 0.000295961
3 *304:10 0.000295961
4 *304:10 *1760:B 6.17437e-06
5 *304:10 *1760:C 0
6 *304:10 *1875:CLK 5.50106e-05
7 *304:10 *1971:A 9.60498e-05
8 *304:10 *385:6 4.27329e-05
9 *304:10 *411:17 5.3304e-05
*RES
1 *1760:Y *304:10 29.0279 
2 *304:10 *1875:D 23 
*END

*D_NET *305 0.000281082
*CONN
*I *1876:D I *D sky130_fd_sc_hd__dfrtp_4
*I *1761:Y O *D sky130_fd_sc_hd__nor4b_1
*CAP
1 *1876:D 0.000125874
2 *1761:Y 0.000125874
3 *1876:D *1876:CLK 2.93335e-05
*RES
1 *1761:Y *1876:D 48.0507 
*END

*D_NET *306 0.000729421
*CONN
*I *1877:D I *D sky130_fd_sc_hd__dfrtp_4
*I *1762:Y O *D sky130_fd_sc_hd__nor4b_1
*CAP
1 *1877:D 0
2 *1762:Y 0.000268071
3 *306:6 0.000268071
4 *306:6 *427:DIODE 9.64943e-05
5 *306:6 *390:33 9.67842e-05
*RES
1 *1762:Y *306:6 27.9093 
2 *306:6 *1877:D 23 
*END

*D_NET *307 0.00126236
*CONN
*I *1878:D I *D sky130_fd_sc_hd__dfrtp_4
*I *1763:Y O *D sky130_fd_sc_hd__nor4b_1
*CAP
1 *1878:D 0
2 *1763:Y 0.000409711
3 *307:10 0.000409711
4 *307:10 *1764:B 1.85921e-05
5 *307:10 *1764:C 0.000359938
6 *307:10 *1878:CLK 4.33503e-05
7 *307:10 *384:12 2.10561e-05
*RES
1 *1763:Y *307:10 31.1614 
2 *307:10 *1878:D 23 
*END

*D_NET *308 0.000961011
*CONN
*I *1879:D I *D sky130_fd_sc_hd__dfrtp_4
*I *1764:Y O *D sky130_fd_sc_hd__nor4b_1
*CAP
1 *1879:D 0.000247046
2 *1764:Y 0.000113625
3 *308:8 0.000360671
4 *1879:D *1970:A 5.50049e-05
5 *1879:D *380:12 3.00186e-05
6 *308:8 *384:8 0.000112455
7 *308:8 *390:20 4.21893e-05
*RES
1 *1764:Y *308:8 40.2579 
2 *308:8 *1879:D 41.9564 
*END

*D_NET *309 0.00194741
*CONN
*I *1880:D I *D sky130_fd_sc_hd__dfrtp_4
*I *1765:Y O *D sky130_fd_sc_hd__nor4b_1
*CAP
1 *1880:D 0
2 *1765:Y 0.000474408
3 *309:18 0.000474408
4 *309:18 *1765:A 0.000318801
5 *309:18 *1766:B 0.000148487
6 *309:18 *1766:C 1.08287e-05
7 *309:18 *310:12 0.000191937
8 *309:18 *390:16 8.94394e-05
9 *191:17 *309:18 0.000233127
10 *237:8 *309:18 5.97265e-06
*RES
1 *1765:Y *309:18 48.9579 
2 *309:18 *1880:D 38 
*END

*D_NET *310 0.000703563
*CONN
*I *1881:D I *D sky130_fd_sc_hd__dfrtp_4
*I *1766:Y O *D sky130_fd_sc_hd__nor4b_1
*CAP
1 *1881:D 0
2 *1766:Y 0.000202977
3 *310:12 0.000202977
4 *310:12 *390:16 5.09885e-05
5 *237:8 *310:12 5.46826e-05
6 *309:18 *310:12 0.000191937
*RES
1 *1766:Y *310:12 42.5779 
2 *310:12 *1881:D 38 
*END

*D_NET *311 0.00188232
*CONN
*I *1827:D I *D sky130_fd_sc_hd__dfrtp_4
*I *1713:Y O *D sky130_fd_sc_hd__nor4b_1
*CAP
1 *1827:D 9.88789e-05
2 *1713:Y 0.000611665
3 *311:10 0.000710544
4 *1827:D *1827:CLK 6.17437e-06
5 *311:10 *1822:CLK 4.07715e-05
6 *311:10 *1824:CLK 2.0094e-05
7 *311:10 *365:21 0.000199298
8 *311:10 *365:49 1.37349e-05
9 *278:12 *311:10 6.48142e-05
10 *289:14 *311:10 5.43506e-06
11 *300:12 *311:10 0.000110913
*RES
1 *1713:Y *311:10 49.4757 
2 *311:10 *1827:D 39.5743 
*END

*D_NET *312 0.000338717
*CONN
*I *1882:D I *D sky130_fd_sc_hd__dfrtp_4
*I *1767:Y O *D sky130_fd_sc_hd__nor4b_1
*CAP
1 *1882:D 0.000128404
2 *1767:Y 0.000128404
3 *1882:D *1882:CLK 3.22467e-05
4 *1882:D *380:51 4.9662e-05
*RES
1 *1767:Y *1882:D 48.0507 
*END

*D_NET *313 0.000771757
*CONN
*I *1883:D I *D sky130_fd_sc_hd__dfrtp_4
*I *1768:Y O *D sky130_fd_sc_hd__nor4b_1
*CAP
1 *1883:D 0
2 *1768:Y 0.000376144
3 *313:6 0.000376144
4 *313:6 *1768:A 1.94693e-05
*RES
1 *1768:Y *313:6 28.8621 
2 *313:6 *1883:D 23 
*END

*D_NET *314 0.000296209
*CONN
*I *1884:D I *D sky130_fd_sc_hd__dfrtp_4
*I *1769:Y O *D sky130_fd_sc_hd__nor4b_1
*CAP
1 *1884:D 0.000124012
2 *1769:Y 0.000124012
3 *1884:D *1884:CLK 4.81857e-05
*RES
1 *1769:Y *1884:D 48.0507 
*END

*D_NET *315 0.000481555
*CONN
*I *1885:D I *D sky130_fd_sc_hd__dfrtp_4
*I *1939:LO O *D sky130_fd_sc_hd__conb_1
*CAP
1 *1885:D 0
2 *1939:LO 0.000240778
3 *315:10 0.000240778
*RES
1 *1939:LO *315:10 41.48 
2 *315:10 *1885:D 38 
*END

*D_NET *316 0.000289712
*CONN
*I *1886:D I *D sky130_fd_sc_hd__dfrtp_4
*I *1770:Y O *D sky130_fd_sc_hd__nor4b_1
*CAP
1 *1886:D 0.000115392
2 *1770:Y 0.000115392
3 *1886:D *1886:CLK 5.40876e-05
4 *1886:D *317:12 4.84129e-06
*RES
1 *1770:Y *1886:D 48.0507 
*END

*D_NET *317 0.00199311
*CONN
*I *1887:D I *D sky130_fd_sc_hd__dfrtp_4
*I *1771:Y O *D sky130_fd_sc_hd__nor4b_1
*CAP
1 *1887:D 0.000261366
2 *1771:Y 0.000477589
3 *317:12 0.000738955
4 *1887:D *1887:CLK 9.98739e-05
5 *1887:D *361:18 5.10805e-05
6 *1887:D *379:8 4.65414e-05
7 *317:12 *1770:B 0.000273572
8 *317:12 *1770:C 1.08287e-05
9 *317:12 *1886:CLK 1.85903e-05
10 *1886:D *317:12 4.84129e-06
11 *197:17 *317:12 9.87385e-06
*RES
1 *1771:Y *317:12 44.6079 
2 *317:12 *1887:D 41.9771 
*END

*D_NET *318 0.0010936
*CONN
*I *1888:D I *D sky130_fd_sc_hd__dfrtp_4
*I *1772:Y O *D sky130_fd_sc_hd__nor4b_1
*CAP
1 *1888:D 0
2 *1772:Y 0.000370231
3 *318:10 0.000370231
4 *318:10 *1890:CLK 2.0094e-05
5 *318:10 *379:25 3.70187e-05
6 *318:10 *379:40 0.000296026
*RES
1 *1772:Y *318:10 44.4214 
2 *318:10 *1888:D 38 
*END

*D_NET *319 0.000838483
*CONN
*I *1889:D I *D sky130_fd_sc_hd__dfrtp_4
*I *1773:Y O *D sky130_fd_sc_hd__nor4b_1
*CAP
1 *1889:D 0
2 *1773:Y 0.000382636
3 *319:6 0.000382636
4 *319:6 *1773:A 2.64616e-05
5 *319:6 *1889:CLK 4.67488e-05
*RES
1 *1773:Y *319:6 28.8621 
2 *319:6 *1889:D 23 
*END

*D_NET *320 0.00114416
*CONN
*I *1890:D I *D sky130_fd_sc_hd__dfrtp_4
*I *1774:Y O *D sky130_fd_sc_hd__nor4b_1
*CAP
1 *1890:D 0
2 *1774:Y 0.000353887
3 *320:10 0.000353887
4 *320:10 *1893:CLK 0.000166513
5 *320:10 *379:40 1.01436e-05
6 *320:10 *379:53 0.000166532
7 *320:10 *396:188 9.31945e-05
*RES
1 *1774:Y *320:10 44.4214 
2 *320:10 *1890:D 38 
*END

*D_NET *321 0.000880595
*CONN
*I *1891:D I *D sky130_fd_sc_hd__dfrtp_4
*I *1775:Y O *D sky130_fd_sc_hd__nor4b_1
*CAP
1 *1891:D 0
2 *1775:Y 0.000297501
3 *321:6 0.000297501
4 *321:6 *362:6 0.000232289
5 *321:6 *412:53 5.3304e-05
*RES
1 *1775:Y *321:6 28.3857 
2 *321:6 *1891:D 23 
*END

*D_NET *322 0.00120898
*CONN
*I *1828:D I *D sky130_fd_sc_hd__dfrtp_4
*I *1714:Y O *D sky130_fd_sc_hd__nor4b_1
*CAP
1 *1828:D 0
2 *1714:Y 0.000274661
3 *322:10 0.000274661
4 *322:10 *1716:C 6.97002e-05
5 *322:10 *1828:CLK 7.28308e-05
6 *322:10 *344:10 9.61174e-05
7 *322:10 *381:66 0.000134613
8 *322:10 *381:68 0.000139974
9 *322:10 *382:120 5.56279e-05
10 *322:10 *391:53 2.80512e-05
11 *225:17 *322:10 6.27395e-05
*RES
1 *1714:Y *322:10 30.4571 
2 *322:10 *1828:D 23 
*END

*D_NET *323 0.0012427
*CONN
*I *1892:D I *D sky130_fd_sc_hd__dfrtp_4
*I *1776:Y O *D sky130_fd_sc_hd__nor4b_1
*CAP
1 *1892:D 0
2 *1776:Y 0.000305702
3 *323:10 0.000305702
4 *323:10 *1893:CLK 0.000169674
5 *323:10 *1894:CLK 2.0094e-05
6 *323:10 *366:10 8.4047e-05
7 *323:10 *367:51 3.36638e-05
8 *323:10 *396:188 0.000323812
*RES
1 *1776:Y *323:10 44.4214 
2 *323:10 *1892:D 38 
*END

*D_NET *324 0.00175272
*CONN
*I *1893:D I *D sky130_fd_sc_hd__dfrtp_4
*I *1777:Y O *D sky130_fd_sc_hd__nor4b_1
*CAP
1 *1893:D 0.000362202
2 *1777:Y 0.000152703
3 *324:10 0.000514905
4 *1893:D *1893:CLK 5.3304e-05
5 *1893:D *1952:A 2.64616e-05
6 *1893:D *366:8 0.000263163
7 *324:10 *1774:B 4.49877e-05
8 *324:10 *1777:C 2.65505e-05
9 *324:10 *386:144 2.675e-05
10 *324:10 *386:148 6.17437e-06
11 *201:17 *324:10 5.56356e-05
12 *237:14 *324:10 0.000219882
*RES
1 *1777:Y *324:10 42.06 
2 *324:10 *1893:D 45.2914 
*END

*D_NET *325 0.00131368
*CONN
*I *1894:D I *D sky130_fd_sc_hd__dfrtp_4
*I *1778:Y O *D sky130_fd_sc_hd__nor4b_1
*CAP
1 *1894:D 0
2 *1778:Y 0.000280882
3 *325:10 0.000280882
4 *325:10 *327:10 9.31945e-05
5 *325:10 *366:10 1.01436e-05
6 *325:10 *366:23 0.0003216
7 *325:10 *396:188 0.000326973
*RES
1 *1778:Y *325:10 44.4214 
2 *325:10 *1894:D 38 
*END

*D_NET *326 0.000919206
*CONN
*I *1895:D I *D sky130_fd_sc_hd__dfrtp_4
*I *1779:Y O *D sky130_fd_sc_hd__nor4b_1
*CAP
1 *1895:D 0
2 *1779:Y 0.00034395
3 *326:6 0.00034395
4 *326:6 *1895:CLK 2.64616e-05
5 *326:6 *397:6 6.57815e-06
6 *326:6 *400:231 0.000140935
7 *326:6 *413:41 5.73309e-05
*RES
1 *1779:Y *326:6 28.3857 
2 *326:6 *1895:D 23 
*END

*D_NET *327 0.00120492
*CONN
*I *1896:D I *D sky130_fd_sc_hd__dfrtp_4
*I *1780:Y O *D sky130_fd_sc_hd__nor4b_1
*CAP
1 *1896:D 0
2 *1780:Y 0.000417293
3 *327:10 0.000417293
4 *327:10 *1778:B 1.46286e-05
5 *327:10 *1778:C 1.08287e-05
6 *327:10 *1780:A 4.21281e-05
7 *327:10 *1896:CLK 2.93335e-05
8 *206:17 *327:10 0.000180224
9 *325:10 *327:10 9.31945e-05
*RES
1 *1780:Y *327:10 30.4571 
2 *327:10 *1896:D 23 
*END

*D_NET *328 0.000823558
*CONN
*I *1897:D I *D sky130_fd_sc_hd__dfrtp_4
*I *1781:Y O *D sky130_fd_sc_hd__nor4b_1
*CAP
1 *1897:D 0
2 *1781:Y 0.000372256
3 *328:6 0.000372256
4 *328:6 *1781:A 2.93747e-05
5 *328:6 *1897:CLK 4.96717e-05
*RES
1 *1781:Y *328:6 28.8621 
2 *328:6 *1897:D 23 
*END

*D_NET *329 0.000314607
*CONN
*I *1898:D I *D sky130_fd_sc_hd__dfrtp_4
*I *1782:Y O *D sky130_fd_sc_hd__nor4b_1
*CAP
1 *1898:D 0.000132493
2 *1782:Y 0.000132493
3 *1898:D *1898:CLK 4.96207e-05
*RES
1 *1782:Y *1898:D 48.0507 
*END

*D_NET *330 0.000766365
*CONN
*I *1899:D I *D sky130_fd_sc_hd__dfrtp_4
*I *1783:Y O *D sky130_fd_sc_hd__nor4b_1
*CAP
1 *1899:D 0
2 *1783:Y 0.000369952
3 *330:6 0.000369952
4 *330:6 *1783:A 2.64616e-05
*RES
1 *1783:Y *330:6 28.3857 
2 *330:6 *1899:D 23 
*END

*D_NET *331 0.000320494
*CONN
*I *1900:D I *D sky130_fd_sc_hd__dfrtp_4
*I *1784:Y O *D sky130_fd_sc_hd__nor4b_1
*CAP
1 *1900:D 0.000119598
2 *1784:Y 0.000119598
3 *1900:D *1900:CLK 4.96207e-05
4 *1900:D *396:196 3.16761e-05
*RES
1 *1784:Y *1900:D 48.0507 
*END

*D_NET *332 0.000654263
*CONN
*I *1901:D I *D sky130_fd_sc_hd__dfrtp_4
*I *1785:Y O *D sky130_fd_sc_hd__nor4b_1
*CAP
1 *1901:D 0
2 *1785:Y 0.000300479
3 *332:6 0.000300479
4 *332:6 *1785:A 5.3304e-05
*RES
1 *1785:Y *332:6 27.9093 
2 *332:6 *1901:D 23 
*END

*D_NET *333 0.000881495
*CONN
*I *1829:D I *D sky130_fd_sc_hd__dfrtp_4
*I *1715:Y O *D sky130_fd_sc_hd__nor4b_1
*CAP
1 *1829:D 0
2 *1715:Y 0.000407146
3 *333:6 0.000407146
4 *333:6 *1715:A 5.50049e-05
5 *333:6 *382:155 1.21972e-05
*RES
1 *1715:Y *333:6 28.8621 
2 *333:6 *1829:D 23 
*END

*D_NET *334 0.000330532
*CONN
*I *1902:D I *D sky130_fd_sc_hd__dfrtp_4
*I *1786:Y O *D sky130_fd_sc_hd__nor4b_1
*CAP
1 *1902:D 0.000114848
2 *1786:Y 0.000114848
3 *1902:D *1902:CLK 5.40876e-05
4 *1902:D *367:105 4.67488e-05
*RES
1 *1786:Y *1902:D 48.0507 
*END

*D_NET *335 0.000965525
*CONN
*I *1903:D I *D sky130_fd_sc_hd__dfrtp_4
*I *1787:Y O *D sky130_fd_sc_hd__nor4b_1
*CAP
1 *1903:D 0
2 *1787:Y 0.000348919
3 *335:6 0.000348919
4 *335:6 *1787:A 2.64616e-05
5 *335:6 *413:8 8.48502e-06
6 *335:6 *416:82 8.82386e-05
7 *335:6 *416:100 0.000144501
*RES
1 *1787:Y *335:6 28.8621 
2 *335:6 *1903:D 23 
*END

*D_NET *336 0.000312492
*CONN
*I *1904:D I *D sky130_fd_sc_hd__dfrtp_4
*I *1788:Y O *D sky130_fd_sc_hd__nor4b_1
*CAP
1 *1904:D 0.000131436
2 *1788:Y 0.000131436
3 *1904:D *1904:CLK 4.96207e-05
*RES
1 *1788:Y *1904:D 48.0507 
*END

*D_NET *337 0.000760747
*CONN
*I *1905:D I *D sky130_fd_sc_hd__dfrtp_4
*I *1789:Y O *D sky130_fd_sc_hd__nor4b_1
*CAP
1 *1905:D 0
2 *1789:Y 0.000377286
3 *337:6 0.000377286
4 *337:6 *1789:A 6.17437e-06
*RES
1 *1789:Y *337:6 28.8621 
2 *337:6 *1905:D 23 
*END

*D_NET *338 0.000249649
*CONN
*I *1906:D I *D sky130_fd_sc_hd__dfrtp_4
*I *1790:Y O *D sky130_fd_sc_hd__nor4b_1
*CAP
1 *1906:D 0.000124825
2 *1790:Y 0.000124825
*RES
1 *1790:Y *1906:D 48.0507 
*END

*D_NET *339 0.000944917
*CONN
*I *1907:D I *D sky130_fd_sc_hd__dfrtp_4
*I *1791:Y O *D sky130_fd_sc_hd__nor4b_1
*CAP
1 *1907:D 0
2 *1791:Y 0.000282398
3 *339:10 0.000282398
4 *339:10 *453:DIODE 0.00017626
5 *339:10 *1791:A 1.32314e-05
6 *339:10 *412:6 0.00019063
7 *339:10 *412:23 0
*RES
1 *1791:Y *339:10 29.5043 
2 *339:10 *1907:D 23 
*END

*D_NET *340 0.000339414
*CONN
*I *1908:D I *D sky130_fd_sc_hd__dfrtp_4
*I *1792:Y O *D sky130_fd_sc_hd__nor4b_1
*CAP
1 *1908:D 0.00015504
2 *1792:Y 0.00015504
3 *1908:D *1908:CLK 2.93335e-05
*RES
1 *1792:Y *1908:D 48.0507 
*END

*D_NET *341 0.00098036
*CONN
*I *1909:D I *D sky130_fd_sc_hd__dfrtp_4
*I *1793:Y O *D sky130_fd_sc_hd__nor4b_1
*CAP
1 *1909:D 0
2 *1793:Y 0.000332314
3 *341:6 0.000332314
4 *341:6 *1793:A 5.50049e-05
5 *341:6 *1909:CLK 0.000136743
6 *341:6 *398:6 5.40337e-05
7 *341:6 *398:10 6.99492e-05
*RES
1 *1793:Y *341:6 29.3386 
2 *341:6 *1909:D 23 
*END

*D_NET *342 0.000330732
*CONN
*I *1910:D I *D sky130_fd_sc_hd__dfrtp_4
*I *1794:Y O *D sky130_fd_sc_hd__nor4b_1
*CAP
1 *1910:D 0.000151285
2 *1794:Y 0.000151285
3 *1910:D *1910:CLK 2.8162e-05
*RES
1 *1794:Y *1910:D 48.0507 
*END

*D_NET *343 0.00085384
*CONN
*I *1911:D I *D sky130_fd_sc_hd__dfrtp_4
*I *1795:Y O *D sky130_fd_sc_hd__nor4b_1
*CAP
1 *1911:D 0
2 *1795:Y 0.000365147
3 *343:6 0.000365147
4 *343:6 *1795:A 2.93747e-05
5 *343:6 *1911:CLK 9.41704e-05
*RES
1 *1795:Y *343:6 28.8621 
2 *343:6 *1911:D 23 
*END

*D_NET *344 0.00156706
*CONN
*I *1830:D I *D sky130_fd_sc_hd__dfrtp_4
*I *1716:Y O *D sky130_fd_sc_hd__nor4b_1
*CAP
1 *1830:D 4.47995e-05
2 *1716:Y 0.000467445
3 *344:10 0.000512244
4 *344:10 *1828:CLK 0.000168754
5 *344:10 *365:49 6.43211e-05
6 *344:10 *373:10 0.00019747
7 *258:12 *1830:D 1.59094e-05
8 *322:10 *344:10 9.61174e-05
*RES
1 *1716:Y *344:10 47.0107 
2 *344:10 *1830:D 38.6214 
*END

*D_NET *345 0.000339414
*CONN
*I *1912:D I *D sky130_fd_sc_hd__dfrtp_4
*I *1796:Y O *D sky130_fd_sc_hd__nor4b_1
*CAP
1 *1912:D 0.00015504
2 *1796:Y 0.00015504
3 *1912:D *1912:CLK 2.93335e-05
*RES
1 *1796:Y *1912:D 48.0507 
*END

*D_NET *346 0.00104915
*CONN
*I *1913:D I *D sky130_fd_sc_hd__dfrtp_4
*I *1797:Y O *D sky130_fd_sc_hd__nor4b_1
*CAP
1 *1913:D 0.000122299
2 *1797:Y 0.000214457
3 *346:10 0.000336757
4 *1913:D *1913:CLK 1.32314e-05
5 *346:10 *1914:CLK 0.00015115
6 *346:10 *347:6 6.23934e-05
7 *346:10 *368:10 6.25829e-05
8 *346:10 *368:12 8.62783e-05
*RES
1 *1797:Y *346:10 42.4329 
2 *346:10 *1913:D 40.4236 
*END

*D_NET *347 0.00126592
*CONN
*I *1914:D I *D sky130_fd_sc_hd__dfrtp_4
*I *1798:Y O *D sky130_fd_sc_hd__nor4b_1
*CAP
1 *1914:D 0
2 *1798:Y 0.000410663
3 *347:6 0.000410663
4 *347:6 *1914:CLK 0.000102389
5 *347:6 *388:81 1.46286e-05
6 *347:6 *414:17 0.000265187
7 *346:10 *347:6 6.23934e-05
*RES
1 *1798:Y *347:6 29.815 
2 *347:6 *1914:D 23 
*END

*D_NET *348 0.00093686
*CONN
*I *1915:D I *D sky130_fd_sc_hd__dfrtp_4
*I *1799:Y O *D sky130_fd_sc_hd__nor4b_1
*CAP
1 *1915:D 0
2 *1799:Y 0.000271057
3 *348:6 0.000271057
4 *348:6 *1799:B 5.3304e-05
5 *348:6 *1915:CLK 9.67842e-05
6 *348:6 *398:88 0.000138607
7 *348:6 *416:10 4.64428e-05
8 *348:6 *416:74 1.46205e-05
9 *231:17 *348:6 4.49877e-05
*RES
1 *1799:Y *348:6 28.8621 
2 *348:6 *1915:D 23 
*END

*D_NET *349 0.000312064
*CONN
*I *1916:D I *D sky130_fd_sc_hd__dfrtp_4
*I *1800:Y O *D sky130_fd_sc_hd__nor4b_1
*CAP
1 *1916:D 0.000141365
2 *1800:Y 0.000141365
3 *1916:D *1916:CLK 2.93335e-05
*RES
1 *1800:Y *1916:D 48.0507 
*END

*D_NET *350 0.000477355
*CONN
*I *1917:D I *D sky130_fd_sc_hd__dfrtp_4
*I *1938:LO O *D sky130_fd_sc_hd__conb_1
*CAP
1 *1917:D 0
2 *1938:LO 0.000238677
3 *350:10 0.000238677
*RES
1 *1938:LO *350:10 41.48 
2 *350:10 *1917:D 38 
*END

*D_NET *351 0.00031561
*CONN
*I *1918:D I *D sky130_fd_sc_hd__dfrtp_4
*I *1801:Y O *D sky130_fd_sc_hd__nor4b_1
*CAP
1 *1918:D 0.000120613
2 *1801:Y 0.000120613
3 *1918:D *1918:CLK 7.43845e-05
*RES
1 *1801:Y *1918:D 48.0507 
*END

*D_NET *352 0.000794449
*CONN
*I *1919:D I *D sky130_fd_sc_hd__dfrtp_4
*I *1802:Y O *D sky130_fd_sc_hd__nor4b_1
*CAP
1 *1919:D 0
2 *1802:Y 0.000383994
3 *352:6 0.000383994
4 *352:6 *398:137 2.64616e-05
*RES
1 *1802:Y *352:6 28.8621 
2 *352:6 *1919:D 23 
*END

*D_NET *353 0.000281082
*CONN
*I *1920:D I *D sky130_fd_sc_hd__dfrtp_4
*I *1803:Y O *D sky130_fd_sc_hd__nor4b_1
*CAP
1 *1920:D 0.000125874
2 *1803:Y 0.000125874
3 *1920:D *1920:CLK 2.93335e-05
*RES
1 *1803:Y *1920:D 48.0507 
*END

*D_NET *354 0.00105931
*CONN
*I *1921:D I *D sky130_fd_sc_hd__dfrtp_4
*I *1804:Y O *D sky130_fd_sc_hd__nor4b_1
*CAP
1 *1921:D 0
2 *1804:Y 0.000244342
3 *354:6 0.000244342
4 *354:6 *423:DIODE 0.000184407
5 *354:6 *1804:A 5.3304e-05
6 *354:6 *1921:CLK 9.67842e-05
7 *354:6 *356:130 0.00014196
8 *354:6 *388:168 9.41704e-05
*RES
1 *1804:Y *354:6 28.8621 
2 *354:6 *1921:D 23 
*END

*D_NET *355 0.000750089
*CONN
*I *1831:D I *D sky130_fd_sc_hd__dfrtp_4
*I *1717:Y O *D sky130_fd_sc_hd__nor4b_1
*CAP
1 *1831:D 0
2 *1717:Y 0.000360357
3 *355:6 0.000360357
4 *355:6 *1717:A 2.93747e-05
*RES
1 *1717:Y *355:6 28.3857 
2 *355:6 *1831:D 23 
*END

*D_NET *356 0.0372553
*CONN
*I *424:DIODE I *D sky130_fd_sc_hd__diode_2
*I *1950:A I *D sky130_fd_sc_hd__clkbuf_8
*I *1949:A I *D sky130_fd_sc_hd__clkbuf_8
*I *423:DIODE I *D sky130_fd_sc_hd__diode_2
*I *422:DIODE I *D sky130_fd_sc_hd__diode_2
*I *1948:A I *D sky130_fd_sc_hd__clkbuf_8
*I *421:DIODE I *D sky130_fd_sc_hd__diode_2
*I *1947:A I *D sky130_fd_sc_hd__clkbuf_8
*I *419:DIODE I *D sky130_fd_sc_hd__diode_2
*I *1945:A I *D sky130_fd_sc_hd__clkbuf_8
*I *420:DIODE I *D sky130_fd_sc_hd__diode_2
*I *1946:A I *D sky130_fd_sc_hd__clkbuf_8
*I *417:DIODE I *D sky130_fd_sc_hd__diode_2
*I *1943:A I *D sky130_fd_sc_hd__clkbuf_8
*I *418:DIODE I *D sky130_fd_sc_hd__diode_2
*I *1944:A I *D sky130_fd_sc_hd__clkbuf_8
*I *1942:X O *D sky130_fd_sc_hd__clkbuf_16
*CAP
1 *424:DIODE 8.76556e-05
2 *1950:A 0
3 *1949:A 0
4 *423:DIODE 0.000133598
5 *422:DIODE 6.25751e-05
6 *1948:A 0
7 *421:DIODE 8.48903e-05
8 *1947:A 7.80521e-05
9 *419:DIODE 0.0001137
10 *1945:A 5.67488e-05
11 *420:DIODE 4.28271e-05
12 *1946:A 9.71964e-05
13 *417:DIODE 0
14 *1943:A 0.000138854
15 *418:DIODE 5.87417e-05
16 *1944:A 0
17 *1942:X 0.000166807
18 *356:158 0.000463113
19 *356:147 0.000763144
20 *356:130 0.00203357
21 *356:126 0.00547274
22 *356:112 6.25751e-05
23 *356:110 0.00407315
24 *356:92 0.000162942
25 *356:90 0.00171408
26 *356:70 0.000170448
27 *356:52 0.000140023
28 *356:36 0.000138854
29 *356:22 0.000254867
30 *356:18 0.00359439
31 *356:16 0.00388784
32 *356:12 0.000728789
33 *356:10 0.00179818
34 *356:8 0.00332716
35 *356:10 *410:83 0
36 *356:16 *410:66 0.000455451
37 *356:16 *410:83 0
38 *356:18 *410:26 0.00010019
39 *356:18 *410:44 0.00145718
40 *356:18 *410:55 4.18957e-05
41 *356:18 *410:66 0.00144658
42 *356:22 *410:26 0.000150883
43 *356:90 *410:101 0.00044558
44 *356:110 *410:101 3.11081e-05
45 *356:126 *410:101 0.000211803
46 *356:126 *410:121 0.000809367
47 *356:126 *410:139 0.000668135
48 *356:130 *1921:RESET_B 0.000122147
49 *356:147 *1805:B 0.000117809
50 *356:147 *1921:CLK 2.71291e-05
51 *356:147 *414:138 0
52 *356:158 *371:86 0
53 *356:158 *410:139 5.62888e-05
54 busy_o *356:90 0
55 busy_o *356:110 0
56 busy_o *356:126 0
57 mstream_o[100] *356:158 0
58 *1922:D *356:147 0.000102128
59 *3:9 *356:10 0
60 *3:9 *356:12 0
61 *3:9 *356:16 0
62 *3:9 *356:18 0
63 *3:9 *356:22 0
64 *3:9 *356:90 0
65 *24:12 *418:DIODE 0.000144501
66 *25:8 *1943:A 7.44257e-05
67 *60:8 *420:DIODE 2.31687e-05
68 *60:8 *1946:A 5.41288e-05
69 *61:10 *419:DIODE 3.39928e-05
70 *72:10 *356:8 0.000128106
71 *85:12 *422:DIODE 0.000143543
72 *116:10 *356:126 0
73 *117:10 *356:126 0
74 *118:10 *356:130 0.000156078
75 *118:10 *356:158 0
76 *122:15 *356:147 1.9771e-05
77 *354:6 *423:DIODE 0.000184407
78 *354:6 *356:130 0.00014196
*RES
1 *1942:X *356:8 40.5271 
2 *356:8 *356:10 28.3164 
3 *356:10 *356:12 2.96214 
4 *356:12 *356:16 10.5332 
5 *356:16 *356:18 80.5268 
6 *356:18 *356:22 19.0186 
7 *356:22 *1944:A 23 
8 *356:22 *418:DIODE 24.5743 
9 *356:18 *356:36 15 
10 *356:36 *1943:A 25.0714 
11 *356:36 *417:DIODE 23 
12 *356:12 *356:52 15 
13 *356:52 *1946:A 24.595 
14 *356:52 *420:DIODE 23.6214 
15 *356:10 *356:70 15 
16 *356:70 *1945:A 24.2014 
17 *356:70 *419:DIODE 24.5743 
18 *356:8 *356:90 31.9 
19 *356:90 *356:92 15 
20 *356:92 *1947:A 24.1186 
21 *356:92 *421:DIODE 24.0979 
22 *356:90 *356:110 1.90571 
23 *356:110 *356:112 15 
24 *356:112 *1948:A 23 
25 *356:112 *422:DIODE 24.5743 
26 *356:110 *356:126 83.955 
27 *356:126 *356:130 30.3907 
28 *356:130 *423:DIODE 25.0507 
29 *356:130 *356:147 40.9786 
30 *356:147 *1949:A 23 
31 *356:126 *356:158 21.7529 
32 *356:158 *1950:A 23 
33 *356:158 *424:DIODE 24.5743 
*END

*D_NET *357 0.00631712
*CONN
*I *1951:A I *D sky130_fd_sc_hd__clkbuf_16
*I *1958:A I *D sky130_fd_sc_hd__clkbuf_16
*I *1943:X O *D sky130_fd_sc_hd__clkbuf_8
*CAP
1 *1951:A 0
2 *1958:A 0
3 *1943:X 0.000451341
4 *357:32 0.000305922
5 *357:20 0.00228566
6 *357:10 0.00243108
7 *357:10 *401:125 0
8 *357:10 *401:132 0
9 *357:10 *401:139 0
10 *357:10 *401:150 0
11 *357:20 *1826:RESET_B 5.26733e-06
12 *357:20 *365:8 7.53303e-06
13 *357:20 *365:19 0.000107729
14 *357:20 *401:62 0
15 *357:20 *401:69 0
16 *357:20 *401:76 0
17 *357:20 *401:92 0
18 *357:20 *401:104 0
19 *357:20 *401:118 0
20 *357:20 *401:125 0
21 *357:32 *365:8 6.60621e-05
22 *357:32 *372:10 5.73309e-05
23 *357:32 *381:90 6.53445e-05
24 *2:13 *357:10 0.000365567
25 *2:13 *357:20 0
26 *23:10 *357:10 4.10394e-05
27 *64:8 *357:20 3.22467e-05
28 *97:10 *357:20 9.4987e-05
*RES
1 *1943:X *357:10 48.5746 
2 *357:10 *357:20 45.8539 
3 *357:20 *357:32 36.4836 
4 *357:32 *1958:A 23 
5 *357:20 *1951:A 23 
*END

*D_NET *358 0.00381418
*CONN
*I *1960:A I *D sky130_fd_sc_hd__clkbuf_16
*I *1959:A I *D sky130_fd_sc_hd__clkbuf_16
*I *1944:X O *D sky130_fd_sc_hd__clkbuf_8
*CAP
1 *1960:A 2.34823e-05
2 *1959:A 0
3 *1944:X 0.000894039
4 *358:20 0.000631954
5 *358:6 0.00154948
6 *358:6 *1835:CLK 0.000135037
7 *358:6 *374:8 8.80362e-05
8 *358:20 *374:8 1.94693e-05
9 *358:20 *382:14 0.000139647
10 *1835:D *358:6 9.2964e-05
11 *24:12 *358:6 9.8203e-05
12 *142:17 *358:20 0.000141869
*RES
1 *1944:X *358:6 39.3436 
2 *358:6 *358:20 40.2121 
3 *358:20 *1959:A 23 
4 *358:6 *1960:A 23.4971 
*END

*D_NET *359 0.00666493
*CONN
*I *1961:A I *D sky130_fd_sc_hd__clkbuf_16
*I *1962:A I *D sky130_fd_sc_hd__clkbuf_16
*I *1945:X O *D sky130_fd_sc_hd__clkbuf_8
*CAP
1 *1961:A 0
2 *1962:A 0
3 *1945:X 0.00110452
4 *359:21 0.000611302
5 *359:12 0.0006434
6 *359:8 0.0012547
7 *359:6 0.00110452
8 *359:6 *1754:B 4.49973e-05
9 *359:6 *1754:C 5.56279e-05
10 *359:6 *1869:CLK 2.93845e-05
11 *359:6 *1869:RESET_B 4.64451e-05
12 *359:6 *385:52 5.40241e-05
13 *359:12 *360:18 0
14 *359:12 *360:31 0
15 *359:12 *394:153 0.000476532
16 *359:21 *360:31 0
17 *359:21 *394:153 0.000500482
18 *61:10 *359:6 5.41288e-05
19 *178:13 *359:6 0.000402055
20 *297:6 *359:6 0.000282815
*RES
1 *1945:X *359:6 45.5371 
2 *359:6 *359:8 15 
3 *359:8 *359:12 28.8786 
4 *359:12 *1962:A 23 
5 *359:8 *359:21 29.2307 
6 *359:21 *1961:A 23 
*END

*D_NET *360 0.00810472
*CONN
*I *1963:A I *D sky130_fd_sc_hd__clkbuf_16
*I *1964:A I *D sky130_fd_sc_hd__clkbuf_16
*I *1946:X O *D sky130_fd_sc_hd__clkbuf_8
*CAP
1 *1963:A 0
2 *1964:A 0
3 *1946:X 0.00189063
4 *360:31 0.00081025
5 *360:18 0.00090096
6 *360:12 0.00171121
7 *360:10 0.00189063
8 *360:10 *1755:A 0.000226238
9 *360:10 *1755:C 2.812e-05
10 *360:10 *1868:CLK 2.92911e-06
11 *360:18 *394:153 0
12 *60:8 *360:10 8.17547e-05
13 *175:13 *360:18 0
14 *176:13 *360:18 0
15 *178:13 *360:31 0
16 *179:13 *360:10 0.000377593
17 *179:13 *360:18 0
18 *179:13 *360:31 0
19 *180:13 *360:31 0
20 *182:13 *360:31 0
21 *183:13 *360:31 0
22 *298:10 *360:10 0.000184407
23 *359:12 *360:18 0
24 *359:12 *360:31 0
25 *359:21 *360:31 0
*RES
1 *1946:X *360:10 48.4371 
2 *360:10 *360:12 15 
3 *360:12 *360:18 30.5564 
4 *360:18 *1964:A 23 
5 *360:12 *360:31 28.9407 
6 *360:31 *1963:A 23 
*END

*D_NET *361 0.00711567
*CONN
*I *1965:A I *D sky130_fd_sc_hd__clkbuf_16
*I *1966:A I *D sky130_fd_sc_hd__clkbuf_16
*I *1947:X O *D sky130_fd_sc_hd__clkbuf_8
*CAP
1 *1965:A 0
2 *1966:A 2.57543e-05
3 *1947:X 0.000440495
4 *361:24 0.00132767
5 *361:18 0.00264927
6 *361:8 0.00178784
7 *361:8 *406:95 0
8 *361:8 *406:119 0
9 *361:8 *410:101 0
10 *361:18 *1887:CLK 2.02872e-05
11 *361:18 *1887:RESET_B 4.88741e-05
12 *361:18 *379:8 0.000358906
13 *361:18 *390:14 0.000137361
14 *361:18 *390:137 4.5617e-05
15 *361:18 *396:121 6.70361e-05
16 *361:24 *390:149 0
17 *361:24 *416:126 0
18 *1887:D *361:18 5.10805e-05
19 *81:10 *361:18 1.32314e-05
20 *189:13 *1966:A 3.22465e-05
21 *190:13 *361:24 0
22 *193:13 *361:24 0
23 *194:13 *361:24 0
24 *195:13 *361:24 0
25 *196:17 *361:18 6.24251e-05
26 *197:17 *361:24 4.75766e-05
27 *198:13 *361:24 0
*RES
1 *1947:X *361:8 45.54 
2 *361:8 *361:18 40.4579 
3 *361:18 *361:24 38.3036 
4 *361:24 *1966:A 38.6214 
5 *361:18 *1965:A 23 
*END

*D_NET *362 0.0057925
*CONN
*I *1952:A I *D sky130_fd_sc_hd__clkbuf_16
*I *1953:A I *D sky130_fd_sc_hd__clkbuf_16
*I *1948:X O *D sky130_fd_sc_hd__clkbuf_8
*CAP
1 *1952:A 0.000206894
2 *1953:A 0
3 *1948:X 0.000834943
4 *362:14 0.000645518
5 *362:8 0.000852412
6 *362:6 0.000834943
7 *1952:A *1774:A 6.19346e-05
8 *1952:A *396:141 3.47781e-05
9 *362:6 *1891:RESET_B 4.88741e-05
10 *362:6 *396:141 5.3304e-05
11 *362:6 *412:53 9.41704e-05
12 *362:14 *396:141 0.000192087
13 *362:14 *412:55 1.88972e-05
14 *1893:D *1952:A 2.64616e-05
15 *85:12 *362:6 0.00010018
16 *199:15 *362:14 0.000382583
17 *204:15 *1952:A 0.000201883
18 *237:14 *1952:A 0.000356531
19 *237:14 *362:14 0.000613814
20 *321:6 *362:6 0.000232289
*RES
1 *1948:X *362:6 38.8671 
2 *362:6 *362:8 15 
3 *362:8 *362:14 29.5829 
4 *362:14 *1953:A 23 
5 *362:8 *1952:A 43.6964 
*END

*D_NET *363 0.00345326
*CONN
*I *1955:A I *D sky130_fd_sc_hd__clkbuf_16
*I *1954:A I *D sky130_fd_sc_hd__clkbuf_16
*I *1949:X O *D sky130_fd_sc_hd__clkbuf_8
*CAP
1 *1955:A 6.74274e-05
2 *1954:A 0
3 *1949:X 0.000245025
4 *363:16 0.000976147
5 *363:10 0.00115375
6 *1955:A *368:8 3.0538e-05
7 *363:16 *1805:B 1.12863e-05
8 *363:16 *368:8 5.79715e-05
9 *363:16 *388:185 5.82713e-05
10 *363:16 *398:141 9.90641e-05
11 *363:16 *398:154 9.67134e-05
12 *363:16 *414:93 0.000242992
13 *363:16 *414:110 0.00012857
14 *363:16 *414:122 8.50366e-05
15 *363:16 *416:31 0
16 *122:15 *363:10 0.000168817
17 *237:16 *363:16 3.16567e-05
*RES
1 *1949:X *363:10 42.5779 
2 *363:10 *363:16 31.2814 
3 *363:16 *1954:A 23 
4 *363:16 *1955:A 24.0979 
*END

*D_NET *364 0.00424363
*CONN
*I *1956:A I *D sky130_fd_sc_hd__clkbuf_16
*I *1957:A I *D sky130_fd_sc_hd__clkbuf_16
*I *1950:X O *D sky130_fd_sc_hd__clkbuf_8
*CAP
1 *1956:A 0.000853886
2 *1957:A 0
3 *1950:X 0.000622822
4 *364:14 0.00101963
5 *364:10 0.000788566
6 *1956:A *1926:CLK 1.40958e-05
7 *1956:A *1926:RESET_B 1.94693e-05
8 *1956:A *371:12 0.000241368
9 *364:10 *371:86 0
10 *364:10 *408:157 0
11 *1926:D *1956:A 0.000177601
12 *6:12 *364:10 9.70602e-05
13 *9:10 *1956:A 4.50098e-05
14 *9:10 *364:14 0.000364116
*RES
1 *1950:X *364:10 48.9993 
2 *364:10 *364:14 18.9564 
3 *364:14 *1957:A 23 
4 *364:14 *1956:A 36.05 
*END

*D_NET *365 0.00677286
*CONN
*I *1831:CLK I *D sky130_fd_sc_hd__dfrtp_4
*I *1830:CLK I *D sky130_fd_sc_hd__dfrtp_4
*I *1824:CLK I *D sky130_fd_sc_hd__dfrtp_4
*I *1822:CLK I *D sky130_fd_sc_hd__dfrtp_4
*I *1826:CLK I *D sky130_fd_sc_hd__dfrtp_4
*I *1951:X O *D sky130_fd_sc_hd__clkbuf_16
*CAP
1 *1831:CLK 6.68343e-05
2 *1830:CLK 8.0968e-05
3 *1824:CLK 0.000107587
4 *1822:CLK 0.00026674
5 *1826:CLK 0
6 *1951:X 0.000526793
7 *365:49 0.000476362
8 *365:21 0.000523861
9 *365:19 0.000554178
10 *365:8 0.000602878
11 *1822:CLK *1823:CLK 0.000274553
12 *1824:CLK *1713:B 5.47983e-06
13 *1831:CLK *372:36 0.000153218
14 *1831:CLK *373:10 0.000163361
15 *365:21 *1823:CLK 0.000151907
16 *365:21 *372:25 0.000250839
17 *365:49 *1828:CLK 0.000168754
18 *365:49 *372:25 0.000178773
19 *365:49 *372:36 0.000670325
20 *365:49 *373:10 0.000241616
21 *240:12 *1822:CLK 7.03089e-05
22 *258:12 *1830:CLK 0.000107729
23 *278:12 *1822:CLK 0.000458803
24 *289:14 *1824:CLK 3.2623e-05
25 *300:12 *365:21 1.01436e-05
26 *300:12 *365:49 0.000108681
27 *311:10 *1822:CLK 4.07715e-05
28 *311:10 *1824:CLK 2.0094e-05
29 *311:10 *365:21 0.000199298
30 *311:10 *365:49 1.37349e-05
31 *344:10 *365:49 6.43211e-05
32 *357:20 *365:8 7.53303e-06
33 *357:20 *365:19 0.000107729
34 *357:32 *365:8 6.60621e-05
*RES
1 *1951:X *365:8 31.1407 
2 *365:8 *1826:CLK 23 
3 *365:8 *365:19 16.595 
4 *365:19 *365:21 5.42714 
5 *365:21 *1822:CLK 45.7264 
6 *365:21 *1824:CLK 40.0921 
7 *365:19 *365:49 11.4136 
8 *365:49 *1830:CLK 39.595 
9 *365:49 *1831:CLK 40.2579 
*END

*D_NET *366 0.00868473
*CONN
*I *1904:CLK I *D sky130_fd_sc_hd__dfrtp_4
*I *1902:CLK I *D sky130_fd_sc_hd__dfrtp_4
*I *1900:CLK I *D sky130_fd_sc_hd__dfrtp_4
*I *1899:CLK I *D sky130_fd_sc_hd__dfrtp_4
*I *1898:CLK I *D sky130_fd_sc_hd__dfrtp_4
*I *1894:CLK I *D sky130_fd_sc_hd__dfrtp_4
*I *1952:X O *D sky130_fd_sc_hd__clkbuf_16
*CAP
1 *1904:CLK 0.000263036
2 *1902:CLK 7.97576e-05
3 *1900:CLK 5.84201e-05
4 *1899:CLK 0
5 *1898:CLK 9.45143e-05
6 *1894:CLK 0.000100951
7 *1952:X 0.000859771
8 *366:58 0.000588789
9 *366:45 0.000391695
10 *366:36 0.000154136
11 *366:23 0.000477592
12 *366:10 0.000491347
13 *366:8 0.000933944
14 *1900:CLK *1784:C 1.11037e-05
15 *1900:CLK *396:196 9.64943e-05
16 *1904:CLK *1788:A 0
17 *1904:CLK *1905:CLK 0.000238464
18 *1904:CLK *367:105 0.000194327
19 *1904:CLK *416:82 0.000275482
20 *366:10 *367:51 0.000192077
21 *366:10 *396:188 5.0896e-05
22 *366:23 *367:51 0.000181952
23 *366:23 *367:62 0.000271401
24 *366:23 *367:77 0.000166522
25 *366:23 *367:88 0.000247687
26 *366:23 *396:188 0.000263629
27 *366:36 *367:88 0.000156388
28 *366:36 *396:188 8.16459e-05
29 *366:45 *367:88 0.000266259
30 *366:45 *396:188 0.000140661
31 *366:58 *367:88 0.00015637
32 *366:58 *367:105 0.000281535
33 *366:58 *396:188 1.58805e-05
34 *366:58 *413:23 0
35 *366:58 *416:100 0
36 *1893:D *366:8 0.000263163
37 *1898:D *1898:CLK 4.96207e-05
38 *1900:D *1900:CLK 4.96207e-05
39 *1902:D *1902:CLK 5.40876e-05
40 *1904:D *1904:CLK 4.96207e-05
41 *323:10 *1894:CLK 2.0094e-05
42 *323:10 *366:10 8.4047e-05
43 *325:10 *366:10 1.01436e-05
44 *325:10 *366:23 0.0003216
*RES
1 *1952:X *366:8 48.6264 
2 *366:8 *366:10 2.61 
3 *366:10 *1894:CLK 39.595 
4 *366:10 *366:23 11.4136 
5 *366:23 *1898:CLK 39.595 
6 *366:23 *366:36 2.25786 
7 *366:36 *1899:CLK 38 
8 *366:36 *366:45 3.66643 
9 *366:45 *1900:CLK 39.595 
10 *366:45 *366:58 5.77929 
11 *366:58 *1902:CLK 39.595 
12 *366:58 *1904:CLK 45.3743 
*END

*D_NET *367 0.0101704
*CONN
*I *1905:CLK I *D sky130_fd_sc_hd__dfrtp_4
*I *1903:CLK I *D sky130_fd_sc_hd__dfrtp_4
*I *1901:CLK I *D sky130_fd_sc_hd__dfrtp_4
*I *1897:CLK I *D sky130_fd_sc_hd__dfrtp_4
*I *1896:CLK I *D sky130_fd_sc_hd__dfrtp_4
*I *1895:CLK I *D sky130_fd_sc_hd__dfrtp_4
*I *1892:CLK I *D sky130_fd_sc_hd__dfrtp_4
*I *1889:CLK I *D sky130_fd_sc_hd__dfrtp_4
*I *1887:CLK I *D sky130_fd_sc_hd__dfrtp_4
*I *1953:X O *D sky130_fd_sc_hd__clkbuf_16
*CAP
1 *1905:CLK 0.000221215
2 *1903:CLK 0
3 *1901:CLK 0
4 *1897:CLK 6.50946e-05
5 *1896:CLK 7.26674e-05
6 *1895:CLK 4.24639e-05
7 *1892:CLK 7.73488e-05
8 *1889:CLK 7.50195e-05
9 *1887:CLK 0.000265879
10 *1953:X 0.0001049
11 *367:105 0.000571271
12 *367:88 0.00084258
13 *367:77 0.00066293
14 *367:62 0.000369011
15 *367:51 0.000578051
16 *367:36 0.000855468
17 *367:25 0.000613065
18 *367:10 0.00047526
19 *1887:CLK *1886:CLK 3.47781e-05
20 *1887:CLK *379:8 5.3304e-05
21 *1887:CLK *379:25 0.000286803
22 *1887:CLK *412:59 0
23 *1892:CLK *396:188 2.93335e-05
24 *1896:CLK *1778:C 1.11037e-05
25 *1905:CLK *416:76 3.20914e-05
26 *1905:CLK *416:82 5.09988e-05
27 *367:10 *1888:CLK 7.47279e-05
28 *367:25 *379:25 1.01436e-05
29 *367:25 *379:40 0.000154147
30 *367:36 *1774:A 0
31 *367:36 *1893:CLK 0.000286822
32 *367:36 *379:40 0.000247678
33 *367:36 *379:53 0.000156388
34 *367:51 *1893:CLK 0.00014411
35 *367:62 *397:124 0
36 *367:77 *413:33 0
37 *367:88 *413:31 0
38 *1887:D *1887:CLK 9.98739e-05
39 *1902:D *367:105 4.67488e-05
40 *1904:CLK *1905:CLK 0.000238464
41 *1904:CLK *367:105 0.000194327
42 *204:15 *367:36 0
43 *204:15 *367:51 0
44 *319:6 *1889:CLK 4.67488e-05
45 *323:10 *367:51 3.36638e-05
46 *326:6 *1895:CLK 2.64616e-05
47 *327:10 *1896:CLK 2.93335e-05
48 *328:6 *1897:CLK 4.96717e-05
49 *361:18 *1887:CLK 2.02872e-05
50 *366:10 *367:51 0.000192077
51 *366:23 *367:51 0.000181952
52 *366:23 *367:62 0.000271401
53 *366:23 *367:77 0.000166522
54 *366:23 *367:88 0.000247687
55 *366:36 *367:88 0.000156388
56 *366:45 *367:88 0.000266259
57 *366:58 *367:88 0.00015637
58 *366:58 *367:105 0.000281535
*RES
1 *1953:X *367:10 39.595 
2 *367:10 *1887:CLK 43.9657 
3 *367:10 *367:25 2.25786 
4 *367:25 *1889:CLK 39.0979 
5 *367:25 *367:36 9.30071 
6 *367:36 *1892:CLK 39.6157 
7 *367:36 *367:51 7.89214 
8 *367:51 *1895:CLK 38.6214 
9 *367:51 *367:62 3.66643 
10 *367:62 *1896:CLK 39.6157 
11 *367:62 *367:77 2.25786 
12 *367:77 *1897:CLK 39.0979 
13 *367:77 *367:88 11.0614 
14 *367:88 *1901:CLK 38 
15 *367:88 *367:105 37.3743 
16 *367:105 *1903:CLK 38 
17 *367:105 *1905:CLK 43.4271 
*END

*D_NET *368 0.00862393
*CONN
*I *1919:CLK I *D sky130_fd_sc_hd__dfrtp_4
*I *1918:CLK I *D sky130_fd_sc_hd__dfrtp_4
*I *1914:CLK I *D sky130_fd_sc_hd__dfrtp_4
*I *1913:CLK I *D sky130_fd_sc_hd__dfrtp_4
*I *1910:CLK I *D sky130_fd_sc_hd__dfrtp_4
*I *1907:CLK I *D sky130_fd_sc_hd__dfrtp_4
*I *1954:X O *D sky130_fd_sc_hd__clkbuf_16
*CAP
1 *1919:CLK 0.000136061
2 *1918:CLK 8.31521e-05
3 *1914:CLK 0.000261722
4 *1913:CLK 3.95265e-05
5 *1910:CLK 0.000182444
6 *1907:CLK 0.000301534
7 *1954:X 0.000954122
8 *368:58 0.000309781
9 *368:14 0.000844188
10 *368:12 0.000495813
11 *368:10 0.000802457
12 *368:8 0.00148935
13 *1907:CLK *416:74 0.000564507
14 *1914:CLK *388:81 3.20961e-05
15 *1919:CLK *369:95 0.000103029
16 *368:8 *369:8 8.97286e-06
17 *368:10 *369:10 0.000107641
18 *368:10 *369:12 8.16356e-05
19 *368:10 *369:14 2.60152e-05
20 *368:10 *369:95 7.49159e-05
21 *368:10 *416:74 0.000206587
22 *368:12 *416:74 0.00015822
23 *368:14 *416:74 0.000690208
24 *368:58 *369:95 6.32688e-05
25 *1910:D *1910:CLK 2.8162e-05
26 *1913:D *1913:CLK 1.32314e-05
27 *1918:D *1918:CLK 7.43845e-05
28 *1955:A *368:8 3.0538e-05
29 *346:10 *1914:CLK 0.00015115
30 *346:10 *368:10 6.25829e-05
31 *346:10 *368:12 8.62783e-05
32 *347:6 *1914:CLK 0.000102389
33 *363:16 *368:8 5.79715e-05
*RES
1 *1954:X *368:8 49.1029 
2 *368:8 *368:10 10.3571 
3 *368:10 *368:12 2.25786 
4 *368:12 *368:14 9.30071 
5 *368:14 *1907:CLK 45.54 
6 *368:14 *1910:CLK 40.4236 
7 *368:12 *1913:CLK 38.6214 
8 *368:10 *1914:CLK 42.8264 
9 *368:8 *368:58 1.90571 
10 *368:58 *1918:CLK 39.5743 
11 *368:58 *1919:CLK 40.9621 
*END

*D_NET *369 0.00919498
*CONN
*I *1921:CLK I *D sky130_fd_sc_hd__dfrtp_4
*I *1920:CLK I *D sky130_fd_sc_hd__dfrtp_4
*I *1916:CLK I *D sky130_fd_sc_hd__dfrtp_4
*I *1915:CLK I *D sky130_fd_sc_hd__dfrtp_4
*I *1912:CLK I *D sky130_fd_sc_hd__dfrtp_4
*I *1911:CLK I *D sky130_fd_sc_hd__dfrtp_4
*I *1909:CLK I *D sky130_fd_sc_hd__dfrtp_4
*I *1908:CLK I *D sky130_fd_sc_hd__dfrtp_4
*I *1906:CLK I *D sky130_fd_sc_hd__dfrtp_4
*I *1955:X O *D sky130_fd_sc_hd__clkbuf_16
*CAP
1 *1921:CLK 0.000286996
2 *1920:CLK 7.78134e-05
3 *1916:CLK 7.72703e-05
4 *1915:CLK 5.05164e-05
5 *1912:CLK 7.72703e-05
6 *1911:CLK 6.48508e-05
7 *1909:CLK 8.77864e-05
8 *1908:CLK 7.74837e-05
9 *1906:CLK 0.000279869
10 *1955:X 0.000368873
11 *369:95 0.000808554
12 *369:20 0.000542119
13 *369:18 0.000526226
14 *369:16 0.000420162
15 *369:14 0.000595613
16 *369:12 0.00058315
17 *369:10 0.000368944
18 *369:8 0.000988362
19 *1906:CLK *412:23 0
20 *1906:CLK *416:74 0.000148527
21 *1906:CLK *416:76 0.000179266
22 *1906:CLK *416:240 1.2153e-05
23 *1915:CLK *416:74 2.64616e-05
24 *1920:CLK *1803:A 0
25 *369:10 *388:102 0
26 *369:14 *414:21 0
27 *369:14 *416:74 0.00064159
28 *369:16 *416:74 0.000169683
29 *369:18 *416:74 0.00042646
30 *369:20 *416:74 0.000274553
31 *369:95 *388:134 0
32 *1792:D_N *369:20 0
33 *1908:D *1908:CLK 2.93335e-05
34 *1912:D *1912:CLK 2.93335e-05
35 *1916:D *1916:CLK 2.93335e-05
36 *1919:CLK *369:95 0.000103029
37 *1920:D *1920:CLK 2.93335e-05
38 *237:16 *1906:CLK 0
39 *237:16 *369:20 0
40 *341:6 *1909:CLK 0.000136743
41 *343:6 *1911:CLK 9.41704e-05
42 *348:6 *1915:CLK 9.67842e-05
43 *354:6 *1921:CLK 9.67842e-05
44 *356:147 *1921:CLK 2.71291e-05
45 *368:8 *369:8 8.97286e-06
46 *368:10 *369:10 0.000107641
47 *368:10 *369:12 8.16356e-05
48 *368:10 *369:14 2.60152e-05
49 *368:10 *369:95 7.49159e-05
50 *368:58 *369:95 6.32688e-05
*RES
1 *1955:X *369:8 42.4329 
2 *369:8 *369:10 2.96214 
3 *369:10 *369:12 2.25786 
4 *369:12 *369:14 9.30071 
5 *369:14 *369:16 2.25786 
6 *369:16 *369:18 5.77929 
7 *369:18 *369:20 3.66643 
8 *369:20 *1906:CLK 43.4893 
9 *369:20 *1908:CLK 39.4707 
10 *369:18 *1909:CLK 39.5743 
11 *369:16 *1911:CLK 39.0979 
12 *369:14 *1912:CLK 39.4707 
13 *369:12 *1915:CLK 39.0979 
14 *369:10 *1916:CLK 39.4707 
15 *369:8 *369:95 8.59643 
16 *369:95 *1920:CLK 39.4707 
17 *369:95 *1921:CLK 42.7643 
*END

*D_NET *370 0.00832387
*CONN
*I *1935:CLK I *D sky130_fd_sc_hd__dfrtp_4
*I *1934:CLK I *D sky130_fd_sc_hd__dfrtp_4
*I *1933:CLK I *D sky130_fd_sc_hd__dfrtp_4
*I *1932:CLK I *D sky130_fd_sc_hd__dfrtp_4
*I *1936:CLK I *D sky130_fd_sc_hd__dfrtp_4
*I *1931:CLK I *D sky130_fd_sc_hd__dfrtp_4
*I *1925:CLK I *D sky130_fd_sc_hd__dfrtp_4
*I *1924:CLK I *D sky130_fd_sc_hd__dfrtp_4
*I *1923:CLK I *D sky130_fd_sc_hd__dfrtp_4
*I *1922:CLK I *D sky130_fd_sc_hd__dfrtp_4
*I *1956:X O *D sky130_fd_sc_hd__clkbuf_16
*CAP
1 *1935:CLK 0.000166557
2 *1934:CLK 0
3 *1933:CLK 7.42406e-05
4 *1932:CLK 4.9927e-05
5 *1936:CLK 7.77133e-05
6 *1931:CLK 2.70685e-05
7 *1925:CLK 6.7315e-05
8 *1924:CLK 7.74999e-05
9 *1923:CLK 4.88883e-05
10 *1922:CLK 0.000246712
11 *1956:X 0.000561102
12 *370:116 0.000291637
13 *370:101 0.000438915
14 *370:90 0.000425637
15 *370:75 0.000462167
16 *370:64 0.00109453
17 *370:16 0.000560821
18 *370:14 0.00047654
19 *370:12 0.000319656
20 *370:10 0.00149875
21 *1933:CLK *1816:B 5.47983e-06
22 *1935:CLK *398:201 0
23 *1936:CLK *1819:A 0
24 *370:10 *1926:CLK 5.56279e-05
25 *370:12 *399:55 0
26 *370:14 *399:36 0
27 *370:14 *416:52 1.90253e-05
28 *370:16 *399:186 0
29 *370:16 *416:52 9.5956e-06
30 *370:64 *371:23 6.60662e-05
31 *370:64 *371:32 5.19048e-05
32 *370:64 *371:45 3.57136e-05
33 *370:64 *399:107 0
34 *370:75 *399:126 0
35 *1922:D *1922:CLK 3.22467e-05
36 *1924:D *1924:CLK 2.93335e-05
37 *1926:D *370:10 0.00011906
38 *1933:D *1933:CLK 2.93335e-05
39 *1936:D *1936:CLK 2.93335e-05
40 *126:15 *370:64 0
41 *134:15 *370:90 0
42 *134:15 *370:101 0
43 *137:31 *1931:CLK 9.84851e-05
44 *237:16 *1935:CLK 0
45 *237:16 *370:64 0
46 *237:16 *370:101 0
47 *237:16 *370:116 0
48 *242:10 *1923:CLK 6.04017e-05
49 *244:6 *1925:CLK 7.88926e-05
50 *247:10 *370:64 0.000435004
51 *250:10 *1931:CLK 3.71369e-05
52 *252:6 *1932:CLK 5.41385e-05
53 *254:12 *1933:CLK 3.23857e-06
54 *255:10 *1935:CLK 8.62876e-05
55 *257:8 *1935:CLK 2.18926e-05
*RES
1 *1956:X *370:10 46.265 
2 *370:10 *370:12 1.90571 
3 *370:12 *370:14 2.25786 
4 *370:14 *370:16 3.66643 
5 *370:16 *1922:CLK 41.8736 
6 *370:16 *1923:CLK 39.0979 
7 *370:14 *1924:CLK 39.6157 
8 *370:12 *1925:CLK 39.5743 
9 *370:10 *370:64 15.2871 
10 *370:64 *1931:CLK 39.0979 
11 *370:64 *370:75 3.66643 
12 *370:75 *1936:CLK 39.6157 
13 *370:75 *370:90 2.25786 
14 *370:90 *1932:CLK 39.0979 
15 *370:90 *370:101 3.66643 
16 *370:101 *1933:CLK 39.6157 
17 *370:101 *370:116 2.25786 
18 *370:116 *1934:CLK 38 
19 *370:116 *1935:CLK 41.3764 
*END

*D_NET *371 0.0112792
*CONN
*I *1917:CLK I *D sky130_fd_sc_hd__dfrtp_4
*I *1937:CLK I *D sky130_fd_sc_hd__dfrtp_4
*I *1930:CLK I *D sky130_fd_sc_hd__dfrtp_4
*I *1929:CLK I *D sky130_fd_sc_hd__dfrtp_4
*I *1928:CLK I *D sky130_fd_sc_hd__dfrtp_4
*I *1927:CLK I *D sky130_fd_sc_hd__dfrtp_4
*I *1926:CLK I *D sky130_fd_sc_hd__dfrtp_4
*I *1957:X O *D sky130_fd_sc_hd__clkbuf_16
*CAP
1 *1917:CLK 0
2 *1937:CLK 7.83044e-05
3 *1930:CLK 0.000219542
4 *1929:CLK 0
5 *1928:CLK 0.000205515
6 *1927:CLK 0
7 *1926:CLK 8.2765e-05
8 *1957:X 0.000296813
9 *371:86 0.000997913
10 *371:71 0.00144786
11 *371:56 0.00168476
12 *371:45 0.000247965
13 *371:32 0.000458257
14 *371:23 0.000253761
15 *371:12 0.00075812
16 *371:6 0.00181676
17 *1928:CLK *399:74 1.11037e-05
18 *371:12 *1926:RESET_B 6.64204e-05
19 *371:71 *1930:RESET_B 5.50049e-05
20 *371:71 *1935:RESET_B 0
21 *371:71 *408:157 0.000508306
22 *371:71 *409:104 0
23 *371:71 *409:116 0
24 *371:71 *409:128 0
25 *371:71 *409:140 0
26 *371:86 *1919:RESET_B 0
27 *371:86 *408:135 0.00021622
28 *371:86 *408:157 0.000531102
29 *371:86 *410:139 0
30 mstream_o[114] *371:71 0.00015968
31 mstream_o[96] *371:86 5.58152e-06
32 *1821:B *371:71 5.44889e-06
33 *1926:D *1926:CLK 8.33062e-05
34 *1928:D *1928:CLK 1.73399e-05
35 *1930:D *1930:CLK 4.38068e-06
36 *1956:A *1926:CLK 1.40958e-05
37 *1956:A *371:12 0.000241368
38 *6:12 *371:86 0
39 *9:10 *371:6 0.000321554
40 *9:10 *371:12 7.43845e-05
41 *13:10 *371:71 2.45549e-06
42 *18:14 *1937:CLK 2.30292e-05
43 *247:10 *1930:CLK 2.0094e-05
44 *247:10 *371:45 8.16459e-05
45 *247:10 *371:56 7.90464e-05
46 *356:158 *371:86 0
47 *364:10 *371:86 0
48 *370:10 *1926:CLK 5.56279e-05
49 *370:64 *371:23 6.60662e-05
50 *370:64 *371:32 5.19048e-05
51 *370:64 *371:45 3.57136e-05
*RES
1 *1957:X *371:6 29.3386 
2 *371:6 *371:12 10.7921 
3 *371:12 *1926:CLK 25.0507 
4 *371:12 *371:23 17.9621 
5 *371:23 *1927:CLK 38 
6 *371:23 *371:32 2.25786 
7 *371:32 *1928:CLK 40.9 
8 *371:32 *371:45 3.66643 
9 *371:45 *1929:CLK 38 
10 *371:45 *371:56 17.2579 
11 *371:56 *1930:CLK 25.9 
12 *371:56 *371:71 38.6557 
13 *371:71 *1937:CLK 39.595 
14 *371:6 *371:86 36.9779 
15 *371:86 *1917:CLK 38 
*END

*D_NET *372 0.010061
*CONN
*I *1825:CLK I *D sky130_fd_sc_hd__dfrtp_4
*I *1837:CLK I *D sky130_fd_sc_hd__dfrtp_4
*I *1835:CLK I *D sky130_fd_sc_hd__dfrtp_4
*I *1834:CLK I *D sky130_fd_sc_hd__dfrtp_4
*I *1833:CLK I *D sky130_fd_sc_hd__dfrtp_4
*I *1827:CLK I *D sky130_fd_sc_hd__dfrtp_4
*I *1823:CLK I *D sky130_fd_sc_hd__dfrtp_4
*I *1958:X O *D sky130_fd_sc_hd__clkbuf_16
*CAP
1 *1825:CLK 6.62058e-05
2 *1837:CLK 0.000334828
3 *1835:CLK 5.89509e-05
4 *1834:CLK 7.76537e-05
5 *1833:CLK 0.00013034
6 *1827:CLK 0.000105455
7 *1823:CLK 0.000350646
8 *1958:X 0.00071605
9 *372:60 0.000532494
10 *372:47 0.000309757
11 *372:36 0.000996063
12 *372:25 0.0011625
13 *372:12 0.000635357
14 *372:10 0.000782256
15 *1823:CLK *381:90 0
16 *1837:CLK *374:23 0.000272312
17 *1837:CLK *374:36 0.000157309
18 *1837:CLK *382:14 0
19 *372:25 *381:90 0
20 *372:36 *1832:CLK 0.000164282
21 *372:36 *373:10 0.000129953
22 *372:36 *381:90 0
23 *372:47 *1832:CLK 0.000169683
24 *372:60 *1832:CLK 0.000218952
25 *372:60 *374:23 4.92689e-05
26 *372:60 *382:14 0
27 *1822:CLK *1823:CLK 0.000274553
28 *1825:D *1825:CLK 2.79662e-05
29 *1825:D *372:10 5.3304e-05
30 *1827:D *1827:CLK 6.17437e-06
31 *1831:CLK *372:36 0.000153218
32 *1835:D *1835:CLK 0.000135037
33 *260:10 *1834:CLK 6.17437e-06
34 *260:10 *372:47 9.28078e-06
35 *260:10 *372:60 0.000227176
36 *261:10 *1834:CLK 2.64616e-05
37 *262:10 *1837:CLK 0.000136743
38 *267:6 *1823:CLK 2.93747e-05
39 *289:14 *1823:CLK 8.29264e-05
40 *300:12 *1827:CLK 2.81066e-05
41 *357:32 *372:10 5.73309e-05
42 *358:6 *1835:CLK 0.000135037
43 *365:21 *1823:CLK 0.000151907
44 *365:21 *372:25 0.000250839
45 *365:49 *372:25 0.000178773
46 *365:49 *372:36 0.000670325
*RES
1 *1958:X *372:10 34.4964 
2 *372:10 *372:12 15 
3 *372:12 *1823:CLK 44.4007 
4 *372:12 *372:25 5.77929 
5 *372:25 *1827:CLK 39.5743 
6 *372:25 *372:36 16.6957 
7 *372:36 *1833:CLK 39.5743 
8 *372:36 *372:47 2.25786 
9 *372:47 *1834:CLK 39.4707 
10 *372:47 *372:60 3.66643 
11 *372:60 *1835:CLK 39.5743 
12 *372:60 *1837:CLK 45.3536 
13 *372:10 *1825:CLK 24.0979 
*END

*D_NET *373 0.0119429
*CONN
*I *1850:CLK I *D sky130_fd_sc_hd__dfrtp_4
*I *1848:CLK I *D sky130_fd_sc_hd__dfrtp_4
*I *1845:CLK I *D sky130_fd_sc_hd__dfrtp_4
*I *1841:CLK I *D sky130_fd_sc_hd__dfrtp_4
*I *1840:CLK I *D sky130_fd_sc_hd__dfrtp_4
*I *1839:CLK I *D sky130_fd_sc_hd__dfrtp_4
*I *1829:CLK I *D sky130_fd_sc_hd__dfrtp_4
*I *1828:CLK I *D sky130_fd_sc_hd__dfrtp_4
*I *1959:X O *D sky130_fd_sc_hd__clkbuf_16
*CAP
1 *1850:CLK 0.00033146
2 *1848:CLK 7.26674e-05
3 *1845:CLK 0
4 *1841:CLK 8.64572e-05
5 *1840:CLK 0.000167664
6 *1839:CLK 0
7 *1829:CLK 0
8 *1828:CLK 0.000195867
9 *1959:X 0.000291327
10 *373:84 0.000974294
11 *373:71 0.00107707
12 *373:56 0.000716929
13 *373:43 0.000378805
14 *373:34 0.000434424
15 *373:10 0.000721844
16 *373:8 0.00116416
17 *1828:CLK *1716:C 1.11037e-05
18 *1848:CLK *1734:C 1.11037e-05
19 *1850:CLK *1851:CLK 7.64867e-05
20 *1850:CLK *374:110 3.46181e-05
21 *1850:CLK *381:14 0
22 *373:8 *1836:CLK 2.0094e-05
23 *373:10 *1832:CLK 0.000534481
24 *373:10 *374:23 0.000213551
25 *373:34 *374:23 0.00010803
26 *373:34 *374:36 0.00042963
27 *373:34 *374:49 0.000166513
28 *373:43 *374:49 0.00015822
29 *373:56 *374:49 0.000211979
30 *373:71 *374:49 0.000315547
31 *373:71 *374:62 0.000166532
32 *373:71 *374:73 0.000277705
33 *373:71 *374:88 0.000166532
34 *373:84 *374:88 8.96852e-05
35 *373:84 *374:101 8.73088e-05
36 *373:84 *374:110 9.50518e-05
37 *1831:CLK *373:10 0.000163361
38 *1833:D *373:10 0.000148417
39 *1836:D *373:8 6.17437e-06
40 *1840:D *1840:CLK 3.33879e-05
41 *1848:D *1848:CLK 2.93335e-05
42 *259:12 *373:10 0.000352547
43 *261:10 *373:10 0.000318429
44 *261:10 *373:34 6.25829e-05
45 *264:12 *373:34 3.56537e-05
46 *266:6 *1841:CLK 2.64616e-05
47 *322:10 *1828:CLK 7.28308e-05
48 *344:10 *1828:CLK 0.000168754
49 *344:10 *373:10 0.00019747
50 *365:49 *1828:CLK 0.000168754
51 *365:49 *373:10 0.000241616
52 *372:36 *373:10 0.000129953
*RES
1 *1959:X *373:8 41.48 
2 *373:8 *373:10 18.8086 
3 *373:10 *1828:CLK 42.8264 
4 *373:10 *1829:CLK 38 
5 *373:8 *373:34 9.30071 
6 *373:34 *1839:CLK 38 
7 *373:34 *373:43 2.25786 
8 *373:43 *1840:CLK 40.4236 
9 *373:43 *373:56 2.96214 
10 *373:56 *1841:CLK 39.6157 
11 *373:56 *373:71 12.1179 
12 *373:71 *1845:CLK 38 
13 *373:71 *373:84 10.8957 
14 *373:84 *1848:CLK 39.6157 
15 *373:84 *1850:CLK 43.4893 
*END

*D_NET *374 0.013209
*CONN
*I *1851:CLK I *D sky130_fd_sc_hd__dfrtp_4
*I *1849:CLK I *D sky130_fd_sc_hd__dfrtp_4
*I *1847:CLK I *D sky130_fd_sc_hd__dfrtp_4
*I *1846:CLK I *D sky130_fd_sc_hd__dfrtp_4
*I *1844:CLK I *D sky130_fd_sc_hd__dfrtp_4
*I *1843:CLK I *D sky130_fd_sc_hd__dfrtp_4
*I *1842:CLK I *D sky130_fd_sc_hd__dfrtp_4
*I *1838:CLK I *D sky130_fd_sc_hd__dfrtp_4
*I *1836:CLK I *D sky130_fd_sc_hd__dfrtp_4
*I *1832:CLK I *D sky130_fd_sc_hd__dfrtp_4
*I *1960:X O *D sky130_fd_sc_hd__clkbuf_16
*CAP
1 *1851:CLK 0.000277473
2 *1849:CLK 3.76737e-05
3 *1847:CLK 0
4 *1846:CLK 0.000201754
5 *1844:CLK 7.50762e-05
6 *1843:CLK 0
7 *1842:CLK 7.41794e-05
8 *1838:CLK 4.26939e-05
9 *1836:CLK 0.000100951
10 *1832:CLK 0.000238046
11 *1960:X 0.000845217
12 *374:110 0.000496815
13 *374:101 0.000341364
14 *374:88 0.000633712
15 *374:73 0.000486391
16 *374:62 0.00023265
17 *374:49 0.000696791
18 *374:36 0.000784857
19 *374:23 0.000432573
20 *374:8 0.00120174
21 *1832:CLK *1720:C 7.86509e-06
22 *1838:CLK *1725:C 7.86509e-06
23 *1842:CLK *1728:C 7.86509e-06
24 *1844:CLK *1730:C 1.11037e-05
25 *1849:CLK *1968:A 0.000141621
26 *1851:CLK *390:37 0.000478238
27 *1851:CLK *390:43 1.01436e-05
28 *374:36 *382:14 0
29 *374:49 *382:14 0
30 *374:110 *390:43 0.000324733
31 *1835:D *374:8 9.41704e-05
32 *1837:CLK *374:23 0.000272312
33 *1837:CLK *374:36 0.000157309
34 *1842:D *1842:CLK 6.53225e-05
35 *1844:D *1844:CLK 5.40876e-05
36 *1844:D *374:88 2.02872e-05
37 *1846:D *1846:CLK 3.68075e-05
38 *1850:CLK *1851:CLK 7.64867e-05
39 *1850:CLK *374:110 3.46181e-05
40 *251:10 *1832:CLK 5.25436e-05
41 *259:12 *1832:CLK 0.000107729
42 *263:10 *1838:CLK 5.40876e-05
43 *264:12 *1838:CLK 0.000110337
44 *275:6 *1849:CLK 5.41288e-05
45 *277:6 *1851:CLK 7.88828e-05
46 *358:6 *374:8 8.80362e-05
47 *358:20 *374:8 1.94693e-05
48 *372:36 *1832:CLK 0.000164282
49 *372:47 *1832:CLK 0.000169683
50 *372:60 *1832:CLK 0.000218952
51 *372:60 *374:23 4.92689e-05
52 *373:8 *1836:CLK 2.0094e-05
53 *373:10 *1832:CLK 0.000534481
54 *373:10 *374:23 0.000213551
55 *373:34 *374:23 0.00010803
56 *373:34 *374:36 0.00042963
57 *373:34 *374:49 0.000166513
58 *373:43 *374:49 0.00015822
59 *373:56 *374:49 0.000211979
60 *373:71 *374:49 0.000315547
61 *373:71 *374:62 0.000166532
62 *373:71 *374:73 0.000277705
63 *373:71 *374:88 0.000166532
64 *373:84 *374:88 8.96852e-05
65 *373:84 *374:101 8.73088e-05
66 *373:84 *374:110 9.50518e-05
*RES
1 *1960:X *374:8 48.6264 
2 *374:8 *1832:CLK 46.7829 
3 *374:8 *374:23 4.37071 
4 *374:23 *1836:CLK 39.595 
5 *374:23 *374:36 5.77929 
6 *374:36 *1838:CLK 39.595 
7 *374:36 *374:49 11.4136 
8 *374:49 *1842:CLK 39.595 
9 *374:49 *374:62 2.25786 
10 *374:62 *1843:CLK 38 
11 *374:62 *374:73 18.6664 
12 *374:73 *1844:CLK 24.595 
13 *374:73 *374:88 20.4686 
14 *374:88 *1846:CLK 40.9 
15 *374:88 *374:101 3.66643 
16 *374:101 *1847:CLK 38 
17 *374:101 *374:110 5.42714 
18 *374:110 *1849:CLK 39.595 
19 *374:110 *1851:CLK 46.0579 
*END

*D_NET *375 0.00552315
*CONN
*I *1879:CLK I *D sky130_fd_sc_hd__dfrtp_4
*I *1873:CLK I *D sky130_fd_sc_hd__dfrtp_4
*I *1872:CLK I *D sky130_fd_sc_hd__dfrtp_4
*I *1871:CLK I *D sky130_fd_sc_hd__dfrtp_4
*I *1870:CLK I *D sky130_fd_sc_hd__dfrtp_4
*I *1961:X O *D sky130_fd_sc_hd__clkbuf_16
*CAP
1 *1879:CLK 0
2 *1873:CLK 0
3 *1872:CLK 0.000149005
4 *1871:CLK 0
5 *1870:CLK 0.000198787
6 *1961:X 0.000199919
7 *375:62 0.000493208
8 *375:16 0.000291033
9 *375:14 0.000304724
10 *375:12 0.000169653
11 *375:10 0.000799307
12 *1870:CLK *1757:C 7.86509e-06
13 *1870:CLK *390:37 0.000168754
14 *1872:CLK *1759:C 7.86509e-06
15 *375:10 *1874:CLK 2.93335e-05
16 *375:12 *377:49 2.61802e-05
17 *375:12 *390:35 0.000279936
18 *375:14 *390:35 7.93051e-05
19 *375:14 *390:37 8.62783e-05
20 *375:16 *377:12 2.19436e-05
21 *375:16 *390:37 0.000279936
22 *375:62 *377:49 3.81554e-05
23 *375:62 *377:60 5.26204e-05
24 *375:62 *377:73 6.68107e-05
25 *375:62 *390:16 4.6318e-06
26 *375:62 *390:20 0.000242225
27 *375:62 *390:33 0.000397994
28 *375:62 *390:35 0.000114083
29 *301:12 *1870:CLK 0.000319433
30 *301:12 *375:16 0.000188256
31 *302:10 *1872:CLK 3.7122e-06
32 *303:12 *1872:CLK 0.000150586
33 *303:12 *375:12 0.000188256
34 *303:12 *375:14 0.000153208
35 *303:12 *375:16 1.01436e-05
*RES
1 *1961:X *375:10 41.0243 
2 *375:10 *375:12 3.66643 
3 *375:12 *375:14 2.25786 
4 *375:14 *375:16 3.66643 
5 *375:16 *1870:CLK 43.3029 
6 *375:16 *1871:CLK 38 
7 *375:14 *1872:CLK 41.045 
8 *375:12 *1873:CLK 38 
9 *375:10 *375:62 28.1743 
10 *375:62 *1879:CLK 23 
*END

*D_NET *376 0.0108239
*CONN
*I *1869:CLK I *D sky130_fd_sc_hd__dfrtp_4
*I *1868:CLK I *D sky130_fd_sc_hd__dfrtp_4
*I *1867:CLK I *D sky130_fd_sc_hd__dfrtp_4
*I *1866:CLK I *D sky130_fd_sc_hd__dfrtp_4
*I *1863:CLK I *D sky130_fd_sc_hd__dfrtp_4
*I *1853:CLK I *D sky130_fd_sc_hd__dfrtp_4
*I *1857:CLK I *D sky130_fd_sc_hd__dfrtp_4
*I *1962:X O *D sky130_fd_sc_hd__clkbuf_16
*CAP
1 *1869:CLK 0.000162221
2 *1868:CLK 0.000214389
3 *1867:CLK 2.0995e-05
4 *1866:CLK 0
5 *1863:CLK 0
6 *1853:CLK 0
7 *1857:CLK 0
8 *1962:X 0.000325069
9 *376:71 0.000470358
10 *376:57 0.000180009
11 *376:49 0.000259626
12 *376:43 0.000401121
13 *376:27 0.00104432
14 *376:14 0.00143811
15 *376:10 0.000443458
16 *376:8 0.000623482
17 *1869:CLK *377:12 1.52259e-05
18 *1869:CLK *390:37 0.000222113
19 *376:10 *390:37 0.000169665
20 *376:14 *378:18 2.26385e-05
21 *376:14 *378:20 2.72055e-05
22 *376:14 *378:22 1.43225e-05
23 *376:14 *378:35 1.53581e-05
24 *376:14 *390:37 0.00126828
25 *376:27 *1857:RESET_B 5.0155e-05
26 *376:27 *404:32 0
27 *376:27 *404:44 0
28 *376:27 *404:56 0
29 *376:27 *404:68 0
30 *376:27 *404:80 0
31 *376:43 *1864:CLK 2.30917e-05
32 *376:43 *377:12 8.83341e-05
33 *376:43 *390:37 0.000654226
34 *376:57 *377:12 0.000163858
35 *376:57 *395:51 4.41725e-05
36 *376:71 *390:37 0.000218952
37 *2:13 *376:27 0.000425009
38 *284:6 *376:27 7.72975e-05
39 *285:10 *376:14 0.000199701
40 *287:12 *376:14 0.000354778
41 *291:20 *376:14 0.000156071
42 *292:10 *376:10 0.00015822
43 *292:10 *376:14 0.000166532
44 *292:10 *376:43 5.46706e-05
45 *295:6 *376:49 2.64616e-05
46 *295:6 *376:57 7.15126e-05
47 *296:10 *1869:CLK 5.46706e-05
48 *296:10 *376:43 0.000114092
49 *296:10 *376:71 0.000207507
50 *298:10 *1868:CLK 3.33993e-05
51 *298:10 *1869:CLK 0.000110922
52 *359:6 *1869:CLK 2.93845e-05
53 *360:10 *1868:CLK 2.92911e-06
*RES
1 *1962:X *376:8 41.9564 
2 *376:8 *376:10 2.25786 
3 *376:10 *376:14 31.6957 
4 *376:14 *1857:CLK 23 
5 *376:14 *376:27 36.7086 
6 *376:27 *1853:CLK 38 
7 *376:10 *1863:CLK 38 
8 *376:8 *376:43 8.59643 
9 *376:43 *376:49 16.1186 
10 *376:49 *376:57 33.8321 
11 *376:57 *1866:CLK 23 
12 *376:49 *1867:CLK 23.4971 
13 *376:43 *376:71 2.96214 
14 *376:71 *1868:CLK 40.9 
15 *376:71 *1869:CLK 42.5779 
*END

*D_NET *377 0.00713533
*CONN
*I *1878:CLK I *D sky130_fd_sc_hd__dfrtp_4
*I *1877:CLK I *D sky130_fd_sc_hd__dfrtp_4
*I *1876:CLK I *D sky130_fd_sc_hd__dfrtp_4
*I *1875:CLK I *D sky130_fd_sc_hd__dfrtp_4
*I *1874:CLK I *D sky130_fd_sc_hd__dfrtp_4
*I *1865:CLK I *D sky130_fd_sc_hd__dfrtp_4
*I *1864:CLK I *D sky130_fd_sc_hd__dfrtp_4
*I *1963:X O *D sky130_fd_sc_hd__clkbuf_16
*CAP
1 *1878:CLK 0.000155126
2 *1877:CLK 0
3 *1876:CLK 7.29925e-05
4 *1875:CLK 1.49804e-05
5 *1874:CLK 7.74837e-05
6 *1865:CLK 2.79004e-05
7 *1864:CLK 0.000203264
8 *1963:X 0.000314803
9 *377:73 0.000340965
10 *377:60 0.000382178
11 *377:49 0.000356377
12 *377:36 0.000421505
13 *377:12 0.0012828
14 *377:10 0.00149241
15 *1875:CLK *1971:A 5.50106e-05
16 *1878:CLK *384:20 0
17 *1878:CLK *390:20 0.000171906
18 *377:12 *384:34 0
19 *377:12 *385:29 0
20 *377:12 *385:31 0
21 *377:12 *385:37 0
22 *377:12 *390:37 0
23 *377:73 *384:20 0
24 *377:73 *384:26 0
25 *377:73 *390:20 6.16531e-05
26 *1869:CLK *377:12 1.52259e-05
27 *1873:D *377:10 5.3304e-05
28 *1876:D *1876:CLK 2.93335e-05
29 *293:6 *1865:CLK 5.50106e-05
30 *296:10 *377:12 0.000185686
31 *298:10 *377:12 0.000185666
32 *301:12 *377:12 0.000177925
33 *302:10 *377:12 0.000186206
34 *302:10 *377:36 2.4306e-05
35 *303:12 *377:12 3.83778e-05
36 *303:12 *377:36 0.000111148
37 *303:12 *377:49 3.31127e-05
38 *304:10 *1875:CLK 5.50106e-05
39 *307:10 *1878:CLK 4.33503e-05
40 *375:10 *1874:CLK 2.93335e-05
41 *375:12 *377:49 2.61802e-05
42 *375:16 *377:12 2.19436e-05
43 *375:62 *377:49 3.81554e-05
44 *375:62 *377:60 5.26204e-05
45 *375:62 *377:73 6.68107e-05
46 *376:43 *1864:CLK 2.30917e-05
47 *376:43 *377:12 8.83341e-05
48 *376:57 *377:12 0.000163858
*RES
1 *1963:X *377:10 41.9771 
2 *377:10 *377:12 21.9779 
3 *377:12 *1864:CLK 41.3764 
4 *377:12 *1865:CLK 38.6214 
5 *377:10 *377:36 2.96214 
6 *377:36 *1874:CLK 39.4707 
7 *377:36 *377:49 3.66643 
8 *377:49 *1875:CLK 38.6214 
9 *377:49 *377:60 2.25786 
10 *377:60 *1876:CLK 39.4707 
11 *377:60 *377:73 3.66643 
12 *377:73 *1877:CLK 38 
13 *377:73 *1878:CLK 41.7286 
*END

*D_NET *378 0.0059671
*CONN
*I *1862:CLK I *D sky130_fd_sc_hd__dfrtp_4
*I *1861:CLK I *D sky130_fd_sc_hd__dfrtp_4
*I *1860:CLK I *D sky130_fd_sc_hd__dfrtp_4
*I *1859:CLK I *D sky130_fd_sc_hd__dfrtp_4
*I *1856:CLK I *D sky130_fd_sc_hd__dfrtp_4
*I *1855:CLK I *D sky130_fd_sc_hd__dfrtp_4
*I *1854:CLK I *D sky130_fd_sc_hd__dfrtp_4
*I *1852:CLK I *D sky130_fd_sc_hd__dfrtp_4
*I *1858:CLK I *D sky130_fd_sc_hd__dfrtp_4
*I *1964:X O *D sky130_fd_sc_hd__clkbuf_16
*CAP
1 *1862:CLK 0
2 *1861:CLK 4.24639e-05
3 *1860:CLK 7.88866e-05
4 *1859:CLK 3.2539e-05
5 *1856:CLK 8.093e-05
6 *1855:CLK 4.9927e-05
7 *1854:CLK 8.42923e-05
8 *1852:CLK 0.000423491
9 *1858:CLK 4.47242e-05
10 *1964:X 0.000322695
11 *378:39 0.000615051
12 *378:37 0.000354303
13 *378:35 0.000495437
14 *378:22 0.000414738
15 *378:20 0.000377283
16 *378:18 0.000372133
17 *378:16 0.000319808
18 *378:10 0.000498921
19 *1852:CLK *390:37 0
20 *1852:CLK *394:29 3.23857e-06
21 *1852:CLK *394:35 0
22 *1860:CLK *1748:C 3.23857e-06
23 *1852:D *1852:CLK 3.22467e-05
24 *281:10 *1852:CLK 6.93449e-05
25 *282:6 *1855:CLK 5.41385e-05
26 *283:10 *1852:CLK 2.72055e-05
27 *283:10 *1854:CLK 1.2026e-05
28 *283:10 *378:37 4.06408e-05
29 *283:10 *378:39 5.26204e-05
30 *285:10 *1856:CLK 1.2026e-05
31 *285:10 *378:35 0.000180401
32 *285:10 *378:37 7.38945e-05
33 *286:6 *1859:CLK 2.93845e-05
34 *287:12 *378:20 9.98995e-05
35 *287:12 *378:22 7.91596e-05
36 *288:6 *1861:CLK 2.64616e-05
37 *291:12 *1860:CLK 3.80661e-05
38 *291:12 *378:18 7.2918e-05
39 *291:12 *378:20 1.00084e-05
40 *291:20 *378:10 7.50825e-05
41 *291:20 *378:16 0.000200739
42 *291:20 *378:18 8.72173e-05
43 *376:14 *378:18 2.26385e-05
44 *376:14 *378:20 2.72055e-05
45 *376:14 *378:22 1.43225e-05
46 *376:14 *378:35 1.53581e-05
*RES
1 *1964:X *378:10 43.2614 
2 *378:10 *378:16 3.72857 
3 *378:16 *378:18 2.25786 
4 *378:18 *378:20 3.66643 
5 *378:20 *378:22 2.78607 
6 *378:22 *1858:CLK 38.9425 
7 *378:22 *378:35 5.25107 
8 *378:35 *378:37 3.66643 
9 *378:37 *378:39 2.25786 
10 *378:39 *1852:CLK 45.395 
11 *378:39 *1854:CLK 39.6157 
12 *378:37 *1855:CLK 39.0979 
13 *378:35 *1856:CLK 39.6157 
14 *378:20 *1859:CLK 38.6214 
15 *378:18 *1860:CLK 39.6157 
16 *378:16 *1861:CLK 38.6214 
17 *378:10 *1862:CLK 38 
*END

*D_NET *379 0.0053595
*CONN
*I *1893:CLK I *D sky130_fd_sc_hd__dfrtp_4
*I *1891:CLK I *D sky130_fd_sc_hd__dfrtp_4
*I *1890:CLK I *D sky130_fd_sc_hd__dfrtp_4
*I *1888:CLK I *D sky130_fd_sc_hd__dfrtp_4
*I *1886:CLK I *D sky130_fd_sc_hd__dfrtp_4
*I *1965:X O *D sky130_fd_sc_hd__clkbuf_16
*CAP
1 *1893:CLK 0.00018773
2 *1891:CLK 0
3 *1890:CLK 9.62695e-05
4 *1888:CLK 0.000109373
5 *1886:CLK 0.000192323
6 *1965:X 0.000107019
7 *379:53 0.000244933
8 *379:40 0.000310525
9 *379:25 0.000428164
10 *379:8 0.000461081
11 *1886:CLK *390:14 0.000135547
12 *1890:CLK *1772:C 1.11037e-05
13 *1893:CLK *396:188 2.70469e-05
14 *379:25 *390:14 5.94125e-05
15 *1886:D *1886:CLK 5.40876e-05
16 *1887:CLK *1886:CLK 3.47781e-05
17 *1887:CLK *379:8 5.3304e-05
18 *1887:CLK *379:25 0.000286803
19 *1887:D *379:8 4.65414e-05
20 *1893:D *1893:CLK 5.3304e-05
21 *196:17 *379:8 0.000142636
22 *317:12 *1886:CLK 1.85903e-05
23 *318:10 *1890:CLK 2.0094e-05
24 *318:10 *379:25 3.70187e-05
25 *318:10 *379:40 0.000296026
26 *320:10 *1893:CLK 0.000166513
27 *320:10 *379:40 1.01436e-05
28 *320:10 *379:53 0.000166532
29 *323:10 *1893:CLK 0.000169674
30 *361:18 *379:8 0.000358906
31 *367:10 *1888:CLK 7.47279e-05
32 *367:25 *379:25 1.01436e-05
33 *367:25 *379:40 0.000154147
34 *367:36 *1893:CLK 0.000286822
35 *367:36 *379:40 0.000247678
36 *367:36 *379:53 0.000156388
37 *367:51 *1893:CLK 0.00014411
*RES
1 *1965:X *379:8 41.9564 
2 *379:8 *1886:CLK 41.9979 
3 *379:8 *379:25 4.01857 
4 *379:25 *1888:CLK 40.0921 
5 *379:25 *379:40 5.42714 
6 *379:40 *1890:CLK 39.595 
7 *379:40 *379:53 2.25786 
8 *379:53 *1891:CLK 38 
9 *379:53 *1893:CLK 44.4007 
*END

*D_NET *380 0.00579421
*CONN
*I *1885:CLK I *D sky130_fd_sc_hd__dfrtp_4
*I *1884:CLK I *D sky130_fd_sc_hd__dfrtp_4
*I *1883:CLK I *D sky130_fd_sc_hd__dfrtp_4
*I *1882:CLK I *D sky130_fd_sc_hd__dfrtp_4
*I *1881:CLK I *D sky130_fd_sc_hd__dfrtp_4
*I *1880:CLK I *D sky130_fd_sc_hd__dfrtp_4
*I *1966:X O *D sky130_fd_sc_hd__clkbuf_16
*CAP
1 *1885:CLK 0
2 *1884:CLK 0.000155871
3 *1883:CLK 0
4 *1882:CLK 3.18278e-05
5 *1881:CLK 0
6 *1880:CLK 5.03088e-05
7 *1966:X 0.000327348
8 *380:83 0.000930175
9 *380:62 0.00122189
10 *380:51 0.000331615
11 *380:38 0.000356799
12 *380:25 0.000260846
13 *380:12 0.000509299
14 *1884:CLK *1769:C 1.11037e-05
15 *380:12 *1970:A 7.53384e-06
16 *380:12 *390:16 0.000152625
17 *380:25 *390:16 0.000235072
18 *380:38 *390:16 0.000171906
19 *380:51 *390:16 0.000246767
20 *380:62 *390:16 0.000266259
21 *380:83 *1885:RESET_B 0.000191011
22 *380:83 *1886:RESET_B 1.16434e-05
23 *380:83 *406:55 0.00016419
24 *1879:D *380:12 3.00186e-05
25 *1882:D *1882:CLK 3.22467e-05
26 *1882:D *380:51 4.9662e-05
27 *1884:D *1884:CLK 4.81857e-05
28 *237:14 *380:12 0
*RES
1 *1966:X *380:12 44.0589 
2 *380:12 *1880:CLK 38.9425 
3 *380:12 *380:25 3.13821 
4 *380:25 *1881:CLK 38 
5 *380:25 *380:38 18.1071 
6 *380:38 *1882:CLK 23.6214 
7 *380:38 *380:51 19.4121 
8 *380:51 *1883:CLK 38 
9 *380:51 *380:62 18.6664 
10 *380:62 *1884:CLK 25.4236 
11 *380:62 *380:83 45.6393 
12 *380:83 *1885:CLK 23 
*END

*D_NET *381 0.0207125
*CONN
*I *1736:A I *D sky130_fd_sc_hd__nor4b_1
*I *1722:A I *D sky130_fd_sc_hd__nor4b_1
*I *1720:A I *D sky130_fd_sc_hd__nor4b_1
*I *1717:A I *D sky130_fd_sc_hd__nor4b_1
*I *1719:A I *D sky130_fd_sc_hd__nor4b_1
*I *1715:A I *D sky130_fd_sc_hd__nor4b_1
*I *1716:A I *D sky130_fd_sc_hd__nor4b_1
*I *1713:A I *D sky130_fd_sc_hd__nor4b_1
*I *1711:A I *D sky130_fd_sc_hd__nor4b_1
*I *1709:A I *D sky130_fd_sc_hd__nor4b_1
*I *1710:A I *D sky130_fd_sc_hd__nor4b_1
*I *1708:A I *D sky130_fd_sc_hd__nor4b_1
*I *1714:A I *D sky130_fd_sc_hd__nor4b_1
*I *1712:A I *D sky130_fd_sc_hd__nor4b_1
*I *1718:A I *D sky130_fd_sc_hd__nor4b_1
*I *1721:A I *D sky130_fd_sc_hd__nor4b_1
*I *1967:X O *D sky130_fd_sc_hd__buf_4
*CAP
1 *1736:A 4.76542e-05
2 *1722:A 0
3 *1720:A 0
4 *1717:A 0.000210884
5 *1719:A 0
6 *1715:A 0.00014333
7 *1716:A 0
8 *1713:A 4.53175e-05
9 *1711:A 0
10 *1709:A 3.93866e-05
11 *1710:A 6.96626e-05
12 *1708:A 0.0001818
13 *1714:A 3.93866e-05
14 *1712:A 0
15 *1718:A 0
16 *1721:A 0
17 *1967:X 2.62118e-05
18 *381:133 0.000129761
19 *381:120 0.000444364
20 *381:96 0.000475377
21 *381:92 0.00059623
22 *381:90 0.000571249
23 *381:74 8.65877e-05
24 *381:68 0.000396674
25 *381:66 0.000879772
26 *381:58 0.000307413
27 *381:56 0.000430627
28 *381:54 0.000292322
29 *381:52 0.000528437
30 *381:50 0.000499286
31 *381:46 0.000347582
32 *381:39 0.000271481
33 *381:28 0.000467767
34 *381:18 0.000253956
35 *381:14 0.00157477
36 *381:8 0.00155075
37 *381:6 7.3866e-05
38 *1708:A *1708:C 0.000146822
39 *1710:A *1710:C 3.01925e-05
40 *1713:A *1713:B 7.86509e-06
41 *1713:A *1713:C 0.000148064
42 *1715:A *1715:B 5.50106e-05
43 *1715:A *1715:C 5.3304e-05
44 *1715:A *382:155 6.07175e-05
45 *1717:A *1717:B 2.64616e-05
46 *1717:A *1717:C 2.36126e-05
47 *1736:A *1736:B 7.51453e-06
48 *1736:A *1736:C 0.000100805
49 *381:6 *1736:C 1.56665e-05
50 *381:6 *416:165 0.000100803
51 *381:14 *1723:B 2.84809e-05
52 *381:14 *1736:B 9.6289e-05
53 *381:14 *382:14 0.00176691
54 *381:14 *382:33 3.64246e-05
55 *381:14 *391:10 0
56 *381:14 *392:14 5.44889e-06
57 *381:14 *393:10 0.000167443
58 *381:14 *393:12 0.000268221
59 *381:14 *393:14 0.000169674
60 *381:14 *393:16 0.000271373
61 *381:14 *393:18 0.000169674
62 *381:14 *393:20 0.000271373
63 *381:14 *393:22 0.000224345
64 *381:14 *393:24 0.000216999
65 *381:14 *393:26 0.000169674
66 *381:14 *393:28 0.000429602
67 *381:14 *393:32 0.00021039
68 *381:18 *1722:B 0
69 *381:18 *1722:C 0
70 *381:28 *1721:B 9.04732e-05
71 *381:28 *1722:C 0.00018196
72 *381:28 *382:20 2.32101e-05
73 *381:39 *1722:C 2.72789e-05
74 *381:39 *382:33 0
75 *381:39 *391:20 0.000377874
76 *381:46 *1722:B 2.18409e-05
77 *381:46 *1722:C 0.000172197
78 *381:46 *382:20 2.4754e-05
79 *381:56 *382:155 3.64246e-05
80 *381:56 *391:39 0
81 *381:56 *391:43 7.24504e-05
82 *381:58 *382:155 0.000214589
83 *381:58 *391:43 4.6318e-06
84 *381:58 *391:49 8.16253e-05
85 *381:66 *382:155 1.12863e-05
86 *381:68 *382:120 6.68064e-05
87 *381:74 *382:126 0.000139856
88 *381:90 *382:49 0.000755003
89 *381:92 *382:49 6.16531e-05
90 *381:92 *382:98 2.29192e-05
91 *381:92 *391:70 2.69104e-05
92 *381:96 *1708:C 2.50756e-05
93 *381:96 *382:98 1.70886e-05
94 *381:96 *391:70 2.8183e-05
95 *381:96 *391:72 8.32764e-05
96 *381:120 *1709:C 7.87147e-05
97 *381:133 *382:55 8.50457e-05
98 *1723:D_N *381:14 0
99 *1728:D_N *381:14 4.68153e-05
100 *1823:CLK *381:90 0
101 *1850:CLK *381:14 0
102 *139:17 *381:52 4.98707e-05
103 *139:17 *381:54 7.03421e-05
104 *139:17 *381:56 2.76611e-06
105 *140:21 *381:50 7.16593e-05
106 *140:21 *381:52 1.61305e-05
107 *141:15 *381:28 1.24376e-05
108 *142:17 *381:14 0.000389742
109 *142:17 *381:46 0.00010018
110 *157:15 *1736:A 3.46255e-05
111 *157:15 *381:6 0.000142577
112 *159:17 *1708:A 9.13336e-05
113 *159:17 *1710:A 9.84851e-05
114 *192:21 *1713:A 9.84851e-05
115 *225:17 *381:56 2.12347e-06
116 *225:17 *381:58 1.17152e-05
117 *225:17 *381:66 2.76611e-06
118 *240:12 *1710:A 7.86509e-06
119 *267:6 *381:120 2.13733e-05
120 *289:14 *1713:A 2.47127e-05
121 *289:14 *381:90 0
122 *322:10 *381:66 0.000134613
123 *322:10 *381:68 0.000139974
124 *333:6 *1715:A 5.50049e-05
125 *355:6 *1717:A 2.93747e-05
126 *357:32 *381:90 6.53445e-05
127 *372:25 *381:90 0
128 *372:36 *381:90 0
*RES
1 *1967:X *381:6 24.5743 
2 *381:6 *381:8 15 
3 *381:8 *381:14 46.11 
4 *381:14 *381:18 15.4971 
5 *381:18 *381:28 5.24071 
6 *381:28 *1721:A 23 
7 *381:28 *381:39 35.7793 
8 *381:39 *1718:A 23 
9 *381:18 *381:46 2.05071 
10 *381:46 *381:50 20.4271 
11 *381:50 *381:52 2.96214 
12 *381:52 *381:54 2.96214 
13 *381:54 *381:56 2.96214 
14 *381:56 *381:58 2.96214 
15 *381:58 *381:66 17.9207 
16 *381:66 *381:68 3.48 
17 *381:68 *381:74 31.9057 
18 *381:74 *1712:A 23 
19 *381:68 *1714:A 23.8493 
20 *381:66 *381:90 25.7093 
21 *381:90 *381:92 1.90571 
22 *381:92 *381:96 19.0186 
23 *381:96 *1708:A 27.4743 
24 *381:96 *1710:A 25.0714 
25 *381:92 *381:120 18.48 
26 *381:120 *1709:A 23.8493 
27 *381:120 *381:133 31.9057 
28 *381:133 *1711:A 23 
29 *381:90 *1713:A 40.0714 
30 *381:58 *1716:A 38 
31 *381:56 *1715:A 41.0243 
32 *381:54 *1719:A 38 
33 *381:52 *1717:A 42.0186 
34 *381:50 *1720:A 38 
35 *381:46 *1722:A 23 
36 *381:6 *1736:A 24.595 
*END

*D_NET *382 0.0207069
*CONN
*I *1736:B I *D sky130_fd_sc_hd__nor4b_1
*I *1722:B I *D sky130_fd_sc_hd__nor4b_1
*I *1720:B I *D sky130_fd_sc_hd__nor4b_1
*I *1718:B I *D sky130_fd_sc_hd__nor4b_1
*I *1717:B I *D sky130_fd_sc_hd__nor4b_1
*I *1719:B I *D sky130_fd_sc_hd__nor4b_1
*I *1716:B I *D sky130_fd_sc_hd__nor4b_1
*I *1715:B I *D sky130_fd_sc_hd__nor4b_1
*I *1714:B I *D sky130_fd_sc_hd__nor4b_1
*I *1712:B I *D sky130_fd_sc_hd__nor4b_1
*I *1713:B I *D sky130_fd_sc_hd__nor4b_1
*I *1710:B I *D sky130_fd_sc_hd__nor4b_1
*I *1711:B I *D sky130_fd_sc_hd__nor4b_1
*I *1709:B I *D sky130_fd_sc_hd__nor4b_1
*I *1708:B I *D sky130_fd_sc_hd__nor4b_1
*I *1721:B I *D sky130_fd_sc_hd__nor4b_1
*I *1968:X O *D sky130_fd_sc_hd__buf_4
*CAP
1 *1736:B 0.000178024
2 *1722:B 7.61368e-05
3 *1720:B 0.000130009
4 *1718:B 0.000109771
5 *1717:B 6.64222e-05
6 *1719:B 0.00013744
7 *1716:B 0
8 *1715:B 3.51369e-05
9 *1714:B 0
10 *1712:B 0
11 *1713:B 0.000163261
12 *1710:B 0
13 *1711:B 3.93866e-05
14 *1709:B 0
15 *1708:B 0.000296743
16 *1721:B 0.000150674
17 *1968:X 7.93981e-05
18 *382:182 0.00023978
19 *382:155 0.000341548
20 *382:138 0.000376684
21 *382:126 0.000110275
22 *382:120 0.000210553
23 *382:98 0.000344524
24 *382:88 0.00063909
25 *382:55 0.00042084
26 *382:51 0.000342663
27 *382:49 0.000740117
28 *382:41 0.000731737
29 *382:39 0.000318125
30 *382:37 0.000503337
31 *382:35 0.000397699
32 *382:33 0.000457517
33 *382:20 0.00063359
34 *382:18 0.000204634
35 *382:14 0.00199108
36 *382:8 0.00222708
37 *1713:B *1713:C 0.00017033
38 *1717:B *1717:C 6.42654e-05
39 *1718:B *391:20 3.22051e-05
40 *1718:B *391:29 4.53056e-05
41 *1719:B *1719:C 0.000139982
42 *1719:B *391:39 9.41704e-05
43 *1720:B *1720:C 6.2552e-05
44 *1720:B *391:29 1.59094e-05
45 *1722:B *1722:C 1.46286e-05
46 *1736:B *1736:C 1.59071e-05
47 *382:14 *392:42 0.000429602
48 *382:33 *1722:C 2.04934e-05
49 *382:33 *391:33 8.59381e-05
50 *382:35 *391:33 9.80563e-05
51 *382:35 *391:39 1.12863e-05
52 *382:37 *391:39 0.000296499
53 *382:39 *391:39 3.39102e-05
54 *382:49 *391:57 3.733e-05
55 *382:49 *391:68 0.000665464
56 *382:49 *391:70 5.86204e-05
57 *382:51 *1711:C 7.25404e-05
58 *382:51 *1713:C 5.3304e-05
59 *382:88 *1713:C 0.000181125
60 *382:120 *391:53 7.90912e-05
61 *382:126 *391:57 0.000191419
62 *382:155 *1715:C 5.3304e-05
63 *1713:A *1713:B 7.86509e-06
64 *1715:A *1715:B 5.50106e-05
65 *1715:A *382:155 6.07175e-05
66 *1717:A *1717:B 2.64616e-05
67 *1728:D_N *382:14 4.68153e-05
68 *1736:A *1736:B 7.51453e-06
69 *1824:CLK *1713:B 5.47983e-06
70 *1837:CLK *382:14 0
71 *139:17 *1719:B 9.84851e-05
72 *140:21 *1720:B 5.67058e-05
73 *140:21 *382:33 3.22819e-05
74 *142:17 *382:14 9.53179e-05
75 *142:17 *382:20 9.84851e-05
76 *157:15 *1736:B 2.57604e-05
77 *192:21 *382:51 1.34995e-05
78 *225:17 *382:39 5.85945e-05
79 *225:17 *382:41 0.000109452
80 *225:17 *382:49 5.58975e-06
81 *251:10 *1718:B 5.56279e-05
82 *251:10 *1720:B 0.00027154
83 *260:10 *382:14 0
84 *275:6 *382:8 7.87243e-05
85 *289:14 *1713:B 0.000102389
86 *322:10 *382:120 5.56279e-05
87 *333:6 *382:155 1.21972e-05
88 *358:20 *382:14 0.000139647
89 *372:60 *382:14 0
90 *374:36 *382:14 0
91 *374:49 *382:14 0
92 *381:14 *1736:B 9.6289e-05
93 *381:14 *382:14 0.00176691
94 *381:14 *382:33 3.64246e-05
95 *381:18 *1722:B 0
96 *381:28 *1721:B 9.04732e-05
97 *381:28 *382:20 2.32101e-05
98 *381:39 *382:33 0
99 *381:46 *1722:B 2.18409e-05
100 *381:46 *382:20 2.4754e-05
101 *381:56 *382:155 3.64246e-05
102 *381:58 *382:155 0.000214589
103 *381:66 *382:155 1.12863e-05
104 *381:68 *382:120 6.68064e-05
105 *381:74 *382:126 0.000139856
106 *381:90 *382:49 0.000755003
107 *381:92 *382:49 6.16531e-05
108 *381:92 *382:98 2.29192e-05
109 *381:96 *382:98 1.70886e-05
110 *381:133 *382:55 8.50457e-05
*RES
1 *1968:X *382:8 39.5743 
2 *382:8 *382:14 41.76 
3 *382:14 *382:18 15.4971 
4 *382:18 *382:20 2.05071 
5 *382:20 *1721:B 25.5479 
6 *382:20 *382:33 21.8357 
7 *382:33 *382:35 1.55357 
8 *382:35 *382:37 4.01857 
9 *382:37 *382:39 2.25786 
10 *382:39 *382:41 3.31429 
11 *382:41 *382:49 28.2364 
12 *382:49 *382:51 2.52714 
13 *382:51 *382:55 16.9057 
14 *382:55 *1708:B 42.8471 
15 *382:55 *1709:B 38 
16 *382:51 *1711:B 23.8493 
17 *382:49 *382:88 2.05071 
18 *382:88 *382:98 35.4893 
19 *382:98 *1710:B 23 
20 *382:88 *1713:B 26.8736 
21 *382:41 *382:120 17.5479 
22 *382:120 *382:126 32.61 
23 *382:126 *1712:B 23 
24 *382:120 *1714:B 23 
25 *382:39 *382:138 15 
26 *382:138 *1715:B 24.1186 
27 *382:138 *382:155 36.3179 
28 *382:155 *1716:B 23 
29 *382:37 *1719:B 41.0036 
30 *382:35 *1717:B 39.4707 
31 *382:33 *382:182 15 
32 *382:182 *1718:B 25.5479 
33 *382:182 *1720:B 26.8529 
34 *382:18 *1722:B 24.595 
35 *382:8 *1736:B 42.2257 
*END

*D_NET *383 0.0110823
*CONN
*I *1734:B I *D sky130_fd_sc_hd__nor4b_1
*I *1735:B I *D sky130_fd_sc_hd__nor4b_1
*I *1733:B I *D sky130_fd_sc_hd__nor4b_1
*I *1732:B I *D sky130_fd_sc_hd__nor4b_1
*I *1731:B I *D sky130_fd_sc_hd__nor4b_1
*I *1730:B I *D sky130_fd_sc_hd__nor4b_1
*I *1729:B I *D sky130_fd_sc_hd__nor4b_1
*I *1728:B I *D sky130_fd_sc_hd__nor4b_1
*I *1727:B I *D sky130_fd_sc_hd__nor4b_1
*I *1726:B I *D sky130_fd_sc_hd__nor4b_1
*I *1725:B I *D sky130_fd_sc_hd__nor4b_1
*I *1724:B I *D sky130_fd_sc_hd__nor4b_1
*I *1723:B I *D sky130_fd_sc_hd__nor4b_1
*I *1969:X O *D sky130_fd_sc_hd__clkbuf_4
*CAP
1 *1734:B 0.000195887
2 *1735:B 0.000115392
3 *1733:B 0
4 *1732:B 0.000116882
5 *1731:B 0
6 *1730:B 0.000116882
7 *1729:B 0
8 *1728:B 0.000175574
9 *1727:B 0
10 *1726:B 0.000143822
11 *1725:B 0.000106306
12 *1724:B 0
13 *1723:B 0.000143342
14 *1969:X 0
15 *383:45 0.000147675
16 *383:37 0.000277464
17 *383:24 0.000403221
18 *383:22 0.000427163
19 *383:20 9.96576e-05
20 *383:18 0.000313871
21 *383:16 0.000169872
22 *383:14 0.000255864
23 *383:12 0.000138982
24 *383:10 0.000255864
25 *383:8 0.000110203
26 *383:6 0.000170901
27 *383:4 0.000195887
28 *1723:B *392:65 0.000188316
29 *1723:B *393:32 0.00021263
30 *1725:B *1725:C 0.000216755
31 *1725:B *392:46 3.44036e-05
32 *1726:B *1726:C 0.000220321
33 *1726:B *392:36 0.000175903
34 *1728:B *1728:A 0.000178517
35 *1728:B *1728:C 1.46286e-05
36 *1730:B *1730:A 0.000178517
37 *1730:B *1730:C 0.000219368
38 *1732:B *1732:A 0.000178517
39 *1732:B *1732:C 0.000219368
40 *1734:B *1734:A 2.53307e-05
41 *1734:B *1734:C 9.87985e-06
42 *1735:B *392:14 1.12863e-05
43 *1735:B *392:16 0.000193539
44 *1735:B *392:18 7.89732e-05
45 *1735:B *393:10 0.000132665
46 *1735:B *393:12 0.000140958
47 *383:8 *392:18 0.000127585
48 *383:8 *393:12 0.000129504
49 *383:8 *393:14 1.14452e-05
50 *383:10 *392:18 1.12863e-05
51 *383:10 *392:20 0.000185508
52 *383:10 *393:14 0.00016046
53 *383:10 *393:16 3.70187e-05
54 *383:12 *392:20 3.64337e-05
55 *383:12 *392:22 0.000207543
56 *383:12 *393:16 0.000235293
57 *383:12 *393:18 1.14452e-05
58 *383:14 *392:22 1.12863e-05
59 *383:14 *392:24 0.000185508
60 *383:14 *393:18 0.00016046
61 *383:14 *393:20 3.70187e-05
62 *383:16 *392:24 3.64337e-05
63 *383:16 *392:26 0.000207543
64 *383:16 *393:20 0.000235293
65 *383:16 *393:22 1.14452e-05
66 *383:18 *392:26 1.12863e-05
67 *383:18 *392:28 0.000224204
68 *383:18 *392:30 4.93587e-05
69 *383:18 *393:22 0.000216051
70 *383:18 *393:24 5.80848e-05
71 *383:20 *392:30 0.000156827
72 *383:20 *393:24 0.00015675
73 *383:20 *393:26 1.14452e-05
74 *383:22 *392:30 1.12863e-05
75 *383:22 *392:36 0.000158098
76 *383:22 *393:26 0.00016046
77 *383:22 *393:28 1.14452e-05
78 *383:24 *392:36 6.38433e-05
79 *383:24 *393:28 0.000422629
80 *383:24 *393:32 1.14452e-05
81 *383:37 *1725:C 0
82 *383:45 *391:10 6.07306e-05
83 *383:45 *393:40 1.12863e-05
84 *1842:D *1728:B 3.23857e-06
85 *145:19 *1725:B 0.000122599
86 *145:19 *383:37 0
87 *145:19 *383:45 0.000231039
88 *155:13 *1734:B 0.000136743
89 *263:10 *1725:B 1.59071e-05
90 *381:14 *1723:B 2.84809e-05
*RES
1 *1969:X *383:4 23 
2 *383:4 *383:6 15 
3 *383:6 *383:8 1.90571 
4 *383:8 *383:10 2.61 
5 *383:10 *383:12 3.31429 
6 *383:12 *383:14 2.61 
7 *383:14 *383:16 3.31429 
8 *383:16 *383:18 3.66643 
9 *383:18 *383:20 2.25786 
10 *383:20 *383:22 2.25786 
11 *383:22 *383:24 5.77929 
12 *383:24 *1723:B 41.6664 
13 *383:24 *383:37 15.4971 
14 *383:37 *383:45 33.3764 
15 *383:45 *1724:B 23 
16 *383:37 *1725:B 26.0243 
17 *383:22 *1726:B 41.5214 
18 *383:20 *1727:B 38 
19 *383:18 *1728:B 41.0243 
20 *383:16 *1729:B 38 
21 *383:14 *1730:B 41.0243 
22 *383:12 *1731:B 38 
23 *383:10 *1732:B 41.0243 
24 *383:8 *1733:B 38 
25 *383:6 *1735:B 41.6664 
26 *383:4 *1734:B 26.5214 
*END

*D_NET *384 0.021083
*CONN
*I *1764:B I *D sky130_fd_sc_hd__nor4b_1
*I *1763:B I *D sky130_fd_sc_hd__nor4b_1
*I *1762:B I *D sky130_fd_sc_hd__nor4b_1
*I *1749:B I *D sky130_fd_sc_hd__nor4b_1
*I *1747:B I *D sky130_fd_sc_hd__nor4b_1
*I *1746:B I *D sky130_fd_sc_hd__nor4b_1
*I *1748:B I *D sky130_fd_sc_hd__nor4b_1
*I *1744:B I *D sky130_fd_sc_hd__nor4b_1
*I *1745:B I *D sky130_fd_sc_hd__nor4b_1
*I *1742:B I *D sky130_fd_sc_hd__nor4b_1
*I *1743:B I *D sky130_fd_sc_hd__nor4b_1
*I *1740:B I *D sky130_fd_sc_hd__nor4b_1
*I *1741:B I *D sky130_fd_sc_hd__nor4b_1
*I *1739:B I *D sky130_fd_sc_hd__nor4b_1
*I *1738:B I *D sky130_fd_sc_hd__nor4b_1
*I *1737:B I *D sky130_fd_sc_hd__nor4b_1
*I *1970:X O *D sky130_fd_sc_hd__buf_4
*CAP
1 *1764:B 2.56268e-05
2 *1763:B 6.69483e-05
3 *1762:B 0
4 *1749:B 3.80521e-05
5 *1747:B 0.000390836
6 *1746:B 0.000152854
7 *1748:B 5.74495e-05
8 *1744:B 0.000138383
9 *1745:B 7.38306e-05
10 *1742:B 0.000161587
11 *1743:B 7.14132e-05
12 *1740:B 0.000133149
13 *1741:B 4.7094e-05
14 *1739:B 0.000331837
15 *1738:B 0.000169166
16 *1737:B 0.000231421
17 *1970:X 7.74147e-05
18 *384:68 0.000467429
19 *384:66 0.000681888
20 *384:56 0.000466317
21 *384:50 0.000479165
22 *384:48 0.000408829
23 *384:46 0.000489829
24 *384:44 0.000376508
25 *384:42 0.000409974
26 *384:40 0.000367914
27 *384:38 0.000372235
28 *384:36 0.00057714
29 *384:34 0.000835328
30 *384:26 0.00197358
31 *384:20 0.00143163
32 *384:18 0.000421665
33 *384:12 0.000305297
34 *384:8 0.000150046
35 *1737:B *400:20 4.07928e-05
36 *1737:B *400:24 0
37 *1737:B *400:82 1.11421e-05
38 *1737:B *416:159 7.65863e-06
39 *1737:B *416:163 0.000256564
40 *1738:B *394:29 3.80607e-05
41 *1738:B *400:20 3.23857e-06
42 *1738:B *400:82 1.27321e-05
43 *1739:B *1739:A 0.000357957
44 *1739:B *1739:C 1.76557e-05
45 *1739:B *394:47 9.03964e-06
46 *1740:B *1740:A 1.24376e-05
47 *1740:B *1740:C 5.56356e-05
48 *1740:B *394:57 4.72268e-05
49 *1741:B *394:47 2.31687e-05
50 *1741:B *403:66 1.24376e-05
51 *1742:B *1742:A 1.24376e-05
52 *1742:B *1742:C 5.3304e-05
53 *1743:B *1743:A 1.24376e-05
54 *1743:B *1743:C 2.31687e-05
55 *1744:B *1744:A 2.36725e-05
56 *1744:B *1744:C 4.07999e-05
57 *1745:B *1745:A 5.09572e-05
58 *1745:B *1745:C 1.46286e-05
59 *1746:B *1746:A 1.24376e-05
60 *1746:B *1746:C 1.97716e-05
61 *1747:B *1747:C 6.83591e-06
62 *1747:B *403:33 1.3523e-05
63 *1747:B *403:42 7.95088e-05
64 *1748:B *1748:A 6.17437e-06
65 *1748:B *1748:C 2.58635e-05
66 *1749:B *1749:A 1.24376e-05
67 *1749:B *1749:C 4.81311e-05
68 *1749:B *403:42 0
69 *1763:B *1764:A 4.08664e-05
70 *1763:B *1764:C 0.00018304
71 *1763:B *403:15 0.000188927
72 *1764:B *1764:A 3.94558e-05
73 *384:12 *1764:C 1.62529e-05
74 *384:18 *1764:A 0.000183451
75 *384:18 *1764:C 1.55613e-05
76 *384:18 *403:21 2.4306e-05
77 *384:20 *403:21 0.000228593
78 *384:26 *1761:C 0.000102468
79 *384:26 *1997:A 0
80 *384:26 *385:77 0.000137361
81 *384:26 *395:58 5.79413e-06
82 *384:26 *395:69 9.61027e-05
83 *384:26 *395:80 0.000144812
84 *384:26 *395:93 7.80354e-05
85 *384:26 *395:104 8.67875e-05
86 *384:26 *395:115 7.65883e-06
87 *384:26 *395:128 0.000204155
88 *384:26 *403:21 1.12863e-05
89 *384:26 *403:29 0
90 *384:26 *411:47 5.97946e-05
91 *384:26 *411:51 0.000192261
92 *384:26 *411:53 0.000270393
93 *384:26 *411:55 0.000164171
94 *384:26 *411:57 0.000187902
95 *384:26 *416:130 0
96 *384:26 *416:132 0
97 *384:34 *1753:B 0.000161416
98 *384:34 *385:58 2.46345e-05
99 *384:34 *395:32 0.000229805
100 *384:34 *395:58 5.94125e-05
101 *384:34 *400:82 0.000607733
102 *384:34 *400:99 0.000176135
103 *384:36 *400:82 0.000100778
104 *384:38 *400:82 0.000130424
105 *384:40 *400:82 0.000181943
106 *384:42 *400:82 0.000233453
107 *384:44 *400:82 0.000155077
108 *384:46 *400:82 0.000262169
109 *384:48 *400:82 0.000154147
110 *384:50 *394:57 1.68817e-05
111 *384:50 *400:82 0.000259017
112 *384:56 *394:57 7.41877e-05
113 *384:56 *400:82 0.000165593
114 *384:66 *394:47 6.53491e-05
115 *384:66 *400:82 0.000217698
116 *384:66 *403:66 1.41129e-05
117 *384:66 *416:159 0
118 *384:68 *400:82 4.82422e-05
119 *1878:CLK *384:20 0
120 *160:19 *1738:B 0.000101905
121 *162:17 *1739:B 4.34464e-05
122 *162:17 *384:66 2.33476e-05
123 *164:17 *384:66 9.03227e-05
124 *177:17 *384:26 0.000125342
125 *184:17 *384:26 0.000235604
126 *189:21 *384:18 5.94125e-05
127 *189:21 *384:20 1.01436e-05
128 *282:6 *1740:B 5.3304e-05
129 *284:6 *1742:B 5.3304e-05
130 *286:6 *1744:B 2.64616e-05
131 *287:12 *1745:B 1.11037e-05
132 *288:6 *1746:B 5.3304e-05
133 *290:10 *1747:B 0.00026614
134 *290:10 *1749:B 2.31687e-05
135 *291:12 *1748:B 3.23857e-06
136 *307:10 *1764:B 1.85921e-05
137 *307:10 *384:12 2.10561e-05
138 *308:8 *384:8 0.000112455
139 *377:12 *384:34 0
140 *377:73 *384:20 0
141 *377:73 *384:26 0
*RES
1 *1970:X *384:8 39.5536 
2 *384:8 *384:12 16.1082 
3 *384:12 *384:18 18.3661 
4 *384:18 *384:20 3.31429 
5 *384:20 *384:26 43.8343 
6 *384:26 *384:34 30.3493 
7 *384:34 *384:36 1.55357 
8 *384:36 *384:38 1.90571 
9 *384:38 *384:40 2.61 
10 *384:40 *384:42 3.31429 
11 *384:42 *384:44 2.25786 
12 *384:44 *384:46 3.66643 
13 *384:46 *384:48 2.25786 
14 *384:48 *384:50 3.66643 
15 *384:50 *384:56 17.755 
16 *384:56 *384:66 20.8829 
17 *384:66 *384:68 1.3775 
18 *384:68 *1737:B 42.8161 
19 *384:68 *1738:B 41.3661 
20 *384:66 *1739:B 44.3593 
21 *384:56 *1741:B 24.1186 
22 *384:50 *1740:B 40.5479 
23 *384:48 *1743:B 39.4707 
24 *384:46 *1742:B 40.5479 
25 *384:44 *1745:B 39.4707 
26 *384:42 *1744:B 40.5479 
27 *384:40 *1748:B 39.1186 
28 *384:38 *1746:B 40.5479 
29 *384:36 *1747:B 44.38 
30 *384:34 *1749:B 39.1186 
31 *384:20 *1762:B 38 
32 *384:18 *1763:B 40.5271 
33 *384:12 *1764:B 23.8493 
*END

*D_NET *385 0.0107273
*CONN
*I *1761:B I *D sky130_fd_sc_hd__nor4b_1
*I *1759:B I *D sky130_fd_sc_hd__nor4b_1
*I *1758:B I *D sky130_fd_sc_hd__nor4b_1
*I *1756:B I *D sky130_fd_sc_hd__nor4b_1
*I *1757:B I *D sky130_fd_sc_hd__nor4b_1
*I *1755:B I *D sky130_fd_sc_hd__nor4b_1
*I *1752:B I *D sky130_fd_sc_hd__nor4b_1
*I *1751:B I *D sky130_fd_sc_hd__nor4b_1
*I *1750:B I *D sky130_fd_sc_hd__nor4b_1
*I *1753:B I *D sky130_fd_sc_hd__nor4b_1
*I *1754:B I *D sky130_fd_sc_hd__nor4b_1
*I *1760:B I *D sky130_fd_sc_hd__nor4b_1
*I *1971:X O *D sky130_fd_sc_hd__clkbuf_4
*CAP
1 *1761:B 0.000168986
2 *1759:B 8.81585e-05
3 *1758:B 0.000319143
4 *1756:B 0.0001239
5 *1757:B 8.80558e-05
6 *1755:B 0
7 *1752:B 0
8 *1751:B 9.20918e-05
9 *1750:B 0.000137217
10 *1753:B 0.00017453
11 *1754:B 0.000107059
12 *1760:B 0.000148401
13 *1971:X 0.0001202
14 *385:81 0.000315296
15 *385:77 0.000214009
16 *385:58 0.00048125
17 *385:52 0.000365579
18 *385:37 0.000428348
19 *385:31 0.000445913
20 *385:29 0.000426695
21 *385:27 0.000429154
22 *385:25 0.000410572
23 *385:23 0.000460735
24 *385:6 0.000268601
25 *1750:B *1750:A 8.50366e-05
26 *1750:B *395:19 5.00353e-05
27 *1750:B *395:32 4.88568e-06
28 *1750:B *400:82 4.21594e-06
29 *1750:B *400:99 1.62615e-05
30 *1750:B *403:29 0
31 *1750:B *411:61 5.56164e-05
32 *1751:B *1751:A 0.000122803
33 *1751:B *1751:C 0.000173746
34 *1753:B *395:51 0.000191419
35 *1754:B *1754:C 5.56279e-05
36 *1756:B *1756:C 5.56279e-05
37 *1757:B *1757:A 1.46286e-05
38 *1757:B *1757:C 1.08287e-05
39 *1758:B *1758:A 1.08287e-05
40 *1758:B *1758:C 4.49877e-05
41 *1760:B *1760:A 1.12349e-05
42 *1760:B *1760:C 6.01157e-05
43 *1760:B *411:17 3.03136e-05
44 *1761:B *1761:A 8.4047e-05
45 *1761:B *1761:C 0.0001039
46 *385:25 *1761:A 9.73644e-05
47 *385:25 *1761:C 6.01751e-05
48 *385:25 *395:104 1.23172e-05
49 *385:25 *395:115 8.4047e-05
50 *385:25 *395:128 0.000589549
51 *385:25 *411:21 0.000590062
52 *385:25 *416:159 0.000129592
53 *385:27 *395:104 3.69517e-05
54 *385:29 *395:104 0.000129504
55 *385:31 *395:80 0.000102629
56 *385:31 *395:93 0.000164282
57 *385:31 *395:104 1.01436e-05
58 *385:37 *395:69 1.01436e-05
59 *385:37 *395:80 0.000194318
60 *385:52 *395:69 4.38375e-05
61 *385:58 *395:58 5.596e-05
62 *385:58 *395:69 7.75736e-06
63 *385:77 *1752:C 5.3304e-05
64 *385:77 *395:51 3.43646e-05
65 *385:81 *411:59 0.000141975
66 *385:81 *411:61 7.45331e-05
67 *177:17 *1750:B 9.28078e-06
68 *177:17 *385:81 0.00022065
69 *182:13 *1757:B 6.17437e-06
70 *186:13 *1761:B 6.17437e-06
71 *294:14 *1751:B 9.64943e-05
72 *295:6 *385:77 5.56356e-05
73 *299:6 *1756:B 1.24376e-05
74 *302:10 *1758:B 0.00022623
75 *302:10 *385:25 0
76 *304:10 *1760:B 6.17437e-06
77 *304:10 *385:6 4.27329e-05
78 *359:6 *1754:B 4.49973e-05
79 *359:6 *385:52 5.40241e-05
80 *377:12 *385:29 0
81 *377:12 *385:31 0
82 *377:12 *385:37 0
83 *384:26 *385:77 0.000137361
84 *384:34 *1753:B 0.000161416
85 *384:34 *385:58 2.46345e-05
*RES
1 *1971:X *385:6 24.5743 
2 *385:6 *1760:B 26.2107 
3 *385:6 *385:23 15 
4 *385:23 *385:25 9.82893 
5 *385:25 *385:27 0.673214 
6 *385:27 *385:29 1.90571 
7 *385:29 *385:31 3.66643 
8 *385:31 *385:37 18.1071 
9 *385:37 *1754:B 25.0714 
10 *385:37 *385:52 18.3557 
11 *385:52 *385:58 3.37643 
12 *385:58 *1753:B 42.4329 
13 *385:58 *385:77 17.9 
14 *385:77 *385:81 17.9621 
15 *385:81 *1750:B 40.61 
16 *385:81 *1751:B 41.1693 
17 *385:77 *1752:B 23 
18 *385:52 *1755:B 38 
19 *385:31 *1757:B 39.595 
20 *385:29 *1756:B 40.0714 
21 *385:27 *1758:B 42.8057 
22 *385:25 *1759:B 39.4189 
23 *385:23 *1761:B 41.1486 
*END

*D_NET *386 0.0221814
*CONN
*I *1774:B I *D sky130_fd_sc_hd__nor4b_1
*I *1777:B I *D sky130_fd_sc_hd__nor4b_1
*I *1791:B I *D sky130_fd_sc_hd__nor4b_1
*I *1790:B I *D sky130_fd_sc_hd__nor4b_1
*I *1789:B I *D sky130_fd_sc_hd__nor4b_1
*I *1788:B I *D sky130_fd_sc_hd__nor4b_1
*I *1775:B I *D sky130_fd_sc_hd__nor4b_1
*I *1772:B I *D sky130_fd_sc_hd__nor4b_1
*I *1773:B I *D sky130_fd_sc_hd__nor4b_1
*I *1770:B I *D sky130_fd_sc_hd__nor4b_1
*I *1769:B I *D sky130_fd_sc_hd__nor4b_1
*I *1768:B I *D sky130_fd_sc_hd__nor4b_1
*I *1767:B I *D sky130_fd_sc_hd__nor4b_1
*I *1765:B I *D sky130_fd_sc_hd__nor4b_1
*I *1766:B I *D sky130_fd_sc_hd__nor4b_1
*I *1771:B I *D sky130_fd_sc_hd__nor4b_1
*I *1972:X O *D sky130_fd_sc_hd__buf_4
*CAP
1 *1774:B 0.000334943
2 *1777:B 0
3 *1791:B 0.000153308
4 *1790:B 0.00011363
5 *1789:B 7.65994e-05
6 *1788:B 0.000108683
7 *1775:B 0
8 *1772:B 0.000134314
9 *1773:B 0
10 *1770:B 0.000145779
11 *1769:B 0.000137615
12 *1768:B 0
13 *1767:B 0.000184332
14 *1765:B 0
15 *1766:B 0.000308208
16 *1771:B 0
17 *1972:X 5.53868e-05
18 *386:198 0.000473525
19 *386:183 0.000405356
20 *386:170 0.0014094
21 *386:162 0.00175833
22 *386:148 0.000730769
23 *386:144 0.000762778
24 *386:129 0.000361569
25 *386:116 0.000309932
26 *386:107 0.000449607
27 *386:88 0.000597631
28 *386:43 0.000695422
29 *386:33 0.000706474
30 *386:29 0.000328588
31 *386:25 0.000545509
32 *386:23 0.000307376
33 *386:16 0.000192629
34 *386:8 0.000248015
35 *1766:B *1765:A 1.77896e-05
36 *1766:B *1766:C 0.000143543
37 *1767:B *1767:C 4.39619e-05
38 *1769:B *1769:C 0.000139982
39 *1770:B *1770:C 2.87244e-05
40 *1772:B *1772:C 8.49716e-05
41 *1772:B *396:133 0.000136743
42 *1774:B *396:177 3.10005e-05
43 *1788:B *1788:A 2.31687e-05
44 *1788:B *1788:C 0.000220321
45 *1788:B *396:202 9.67842e-05
46 *1789:B *1789:A 2.93845e-05
47 *1790:B *1790:A 2.31687e-05
48 *1790:B *1790:C 0.000181801
49 *1791:B *1791:A 5.24984e-05
50 *1791:B *1791:C 4.78741e-05
51 *1791:B *396:215 1.6891e-05
52 *386:8 *390:118 5.56279e-05
53 *386:16 *390:118 4.288e-05
54 *386:16 *390:137 0.000146234
55 *386:16 *396:97 6.28499e-05
56 *386:25 *390:137 0
57 *386:25 *416:126 0
58 *386:29 *416:126 0
59 *386:33 *416:126 0
60 *386:43 *396:16 1.52799e-05
61 *386:43 *416:126 0.00038423
62 *386:88 *396:97 1.31414e-05
63 *386:107 *396:121 0.000319846
64 *386:107 *396:133 5.44889e-06
65 *386:107 *416:126 0
66 *386:116 *396:133 5.04384e-05
67 *386:144 *1775:C 3.91386e-05
68 *386:144 *396:158 1.3523e-05
69 *386:144 *412:47 5.56279e-05
70 *386:144 *412:53 3.15221e-05
71 *386:144 *416:120 0
72 *386:148 *1777:A 5.28646e-05
73 *386:148 *1777:C 6.01621e-05
74 *386:162 *1777:A 2.02872e-05
75 *386:162 *390:149 0.000587984
76 *386:162 *400:158 0.000220885
77 *386:162 *412:39 0.000217653
78 *386:162 *412:47 8.7985e-05
79 *386:170 *1787:B 0.000264481
80 *386:170 *387:53 0.000141975
81 *386:170 *387:62 0.000233596
82 *386:170 *387:77 0.000182405
83 *386:170 *387:86 0.000182252
84 *386:170 *387:99 0.000230532
85 *386:170 *387:108 0.000154843
86 *386:170 *396:196 0
87 *386:170 *396:206 1.46784e-05
88 *386:170 *397:14 6.15872e-05
89 *386:170 *397:30 2.32052e-05
90 *386:170 *400:158 0
91 *386:170 *416:120 0
92 *386:183 *396:206 8.87374e-05
93 *386:183 *400:158 0
94 *386:198 *396:206 2.94915e-05
95 *386:198 *396:215 0.00010704
96 *1787:D_N *386:170 2.33476e-05
97 *191:17 *1766:B 0.00016604
98 *193:13 *1767:B 0.000136743
99 *193:13 *386:43 0.000275472
100 *195:13 *1769:B 0.00018118
101 *196:17 *386:25 4.73448e-05
102 *196:17 *386:88 0.000159796
103 *196:17 *386:107 0.000160159
104 *197:17 *1770:B 0.000125392
105 *201:17 *1774:B 3.78859e-05
106 *201:17 *386:116 5.02335e-05
107 *201:17 *386:129 0.000204287
108 *201:17 *386:144 0.000158815
109 *205:13 *386:162 5.3304e-05
110 *206:17 *386:170 0.000262963
111 *207:15 *386:162 0.000307692
112 *217:13 *1788:B 0.000178517
113 *219:13 *1790:B 0.000178517
114 *237:8 *1766:B 2.18506e-05
115 *237:14 *386:25 9.92986e-05
116 *237:14 *386:29 9.3465e-05
117 *237:14 *386:33 0.000277705
118 *237:14 *386:107 0.000420343
119 *237:14 *386:116 0.000249909
120 *237:14 *386:129 0.000218962
121 *237:14 *386:144 2.86934e-06
122 *237:16 *386:170 3.66226e-05
123 *309:18 *1766:B 0.000148487
124 *317:12 *1770:B 0.000273572
125 *324:10 *1774:B 4.49877e-05
126 *324:10 *386:144 2.675e-05
127 *324:10 *386:148 6.17437e-06
*RES
1 *1972:X *386:8 24.4707 
2 *386:8 *386:16 33.9564 
3 *386:16 *1771:B 23 
4 *386:8 *386:23 15 
5 *386:23 *386:25 3.66643 
6 *386:25 *386:29 3.58357 
7 *386:29 *386:33 18.6664 
8 *386:33 *386:43 38.7 
9 *386:43 *1766:B 30.105 
10 *386:43 *1765:B 23 
11 *386:33 *1767:B 26.3764 
12 *386:29 *1768:B 38 
13 *386:25 *1769:B 41.0036 
14 *386:23 *386:88 2.25786 
15 *386:88 *1770:B 41.9979 
16 *386:88 *386:107 9.01071 
17 *386:107 *1773:B 38 
18 *386:107 *386:116 3.31429 
19 *386:116 *1772:B 40.5271 
20 *386:116 *386:129 17.9621 
21 *386:129 *1775:B 23 
22 *386:129 *386:144 34.9093 
23 *386:144 *386:148 2.77571 
24 *386:148 *386:162 43.7129 
25 *386:162 *386:170 41.6179 
26 *386:170 *1788:B 41.5007 
27 *386:170 *386:183 2.61 
28 *386:183 *1789:B 39.6157 
29 *386:183 *386:198 4.01857 
30 *386:198 *1790:B 41.0036 
31 *386:198 *1791:B 41.5214 
32 *386:148 *1777:B 23 
33 *386:144 *1774:B 27.6814 
*END

*D_NET *387 0.00891778
*CONN
*I *1778:B I *D sky130_fd_sc_hd__nor4b_1
*I *1787:B I *D sky130_fd_sc_hd__nor4b_1
*I *1786:B I *D sky130_fd_sc_hd__nor4b_1
*I *1785:B I *D sky130_fd_sc_hd__nor4b_1
*I *1784:B I *D sky130_fd_sc_hd__nor4b_1
*I *1783:B I *D sky130_fd_sc_hd__nor4b_1
*I *1782:B I *D sky130_fd_sc_hd__nor4b_1
*I *1781:B I *D sky130_fd_sc_hd__nor4b_1
*I *1780:B I *D sky130_fd_sc_hd__nor4b_1
*I *1779:B I *D sky130_fd_sc_hd__nor4b_1
*I *1776:B I *D sky130_fd_sc_hd__nor4b_1
*I *1973:X O *D sky130_fd_sc_hd__buf_2
*CAP
1 *1778:B 9.42211e-05
2 *1787:B 0.000103934
3 *1786:B 0.00021334
4 *1785:B 0
5 *1784:B 0.00019444
6 *1783:B 0
7 *1782:B 0.000174469
8 *1781:B 0
9 *1780:B 0
10 *1779:B 0
11 *1776:B 0
12 *1973:X 0
13 *387:108 0.000377115
14 *387:99 0.000151044
15 *387:86 0.000348761
16 *387:77 0.000138588
17 *387:62 0.000332635
18 *387:53 0.000155979
19 *387:47 0.000332501
20 *387:38 0.00023305
21 *387:22 0.000291322
22 *387:10 0.000418383
23 *387:4 0.000195114
24 *1778:B *1778:C 0.000219368
25 *1778:B *1780:A 0.000166987
26 *1782:B *1782:C 6.63479e-05
27 *1782:B *412:35 0.000136743
28 *1784:B *1784:C 2.68258e-05
29 *1786:B *1786:C 4.34559e-05
30 *1787:B *1787:C 0.000188256
31 *1787:B *397:100 8.85189e-05
32 *387:10 *1779:A 3.76965e-05
33 *387:10 *1779:C 3.91386e-05
34 *387:10 *1973:A 0
35 *387:10 *397:14 0.0001835
36 *387:22 *400:158 9.87385e-06
37 *387:22 *400:231 9.03364e-06
38 *387:22 *413:60 0.00030873
39 *387:38 *397:14 0.000138719
40 *387:38 *416:120 0.000138719
41 *387:47 *1780:A 0.000198351
42 *387:53 *1778:C 0
43 *387:53 *397:30 1.14452e-05
44 *387:53 *397:43 0.000132665
45 *387:62 *397:43 1.14452e-05
46 *387:62 *397:52 0.000236342
47 *387:77 *397:52 1.14452e-05
48 *387:77 *397:67 0.000181934
49 *387:86 *397:67 1.14452e-05
50 *387:86 *397:76 0.000182873
51 *387:99 *397:76 6.01083e-05
52 *387:99 *397:91 0.000182269
53 *387:108 *397:91 1.14452e-05
54 *387:108 *397:100 0.000157309
55 *206:17 *387:22 0.000220948
56 *207:15 *387:10 5.01469e-05
57 *212:13 *1784:B 0.000135037
58 *215:13 *1786:B 0.000135037
59 *237:16 *387:22 2.60152e-05
60 *327:10 *1778:B 1.46286e-05
61 *386:170 *1787:B 0.000264481
62 *386:170 *387:53 0.000141975
63 *386:170 *387:62 0.000233596
64 *386:170 *387:77 0.000182405
65 *386:170 *387:86 0.000182252
66 *386:170 *387:99 0.000230532
67 *386:170 *387:108 0.000154843
*RES
1 *1973:X *387:4 23 
2 *387:4 *387:10 3.52143 
3 *387:10 *387:22 36.4836 
4 *387:22 *1776:B 23 
5 *387:10 *1779:B 23 
6 *387:4 *387:38 31.9057 
7 *387:38 *1780:B 23 
8 *387:38 *387:47 3.37643 
9 *387:47 *387:53 17.4029 
10 *387:53 *1781:B 38 
11 *387:53 *387:62 3.31429 
12 *387:62 *1782:B 41.5214 
13 *387:62 *387:77 2.61 
14 *387:77 *1783:B 38 
15 *387:77 *387:86 2.61 
16 *387:86 *1784:B 41.0243 
17 *387:86 *387:99 3.31429 
18 *387:99 *1785:B 38 
19 *387:99 *387:108 2.25786 
20 *387:108 *1786:B 41.5214 
21 *387:108 *1787:B 41.6664 
22 *387:47 *1778:B 26.0243 
*END

*D_NET *388 0.022529
*CONN
*I *1793:B I *D sky130_fd_sc_hd__nor4b_1
*I *1797:B I *D sky130_fd_sc_hd__nor4b_1
*I *1820:B I *D sky130_fd_sc_hd__nor4b_1
*I *1818:B I *D sky130_fd_sc_hd__nor4b_1
*I *1819:B I *D sky130_fd_sc_hd__nor4b_1
*I *1804:B I *D sky130_fd_sc_hd__nor4b_1
*I *1803:B I *D sky130_fd_sc_hd__nor4b_1
*I *1802:B I *D sky130_fd_sc_hd__nor4b_1
*I *1801:B I *D sky130_fd_sc_hd__nor4b_1
*I *1800:B I *D sky130_fd_sc_hd__nor4b_1
*I *1799:B I *D sky130_fd_sc_hd__nor4b_1
*I *1798:B I *D sky130_fd_sc_hd__nor4b_1
*I *1796:B I *D sky130_fd_sc_hd__nor4b_1
*I *1795:B I *D sky130_fd_sc_hd__nor4b_1
*I *1794:B I *D sky130_fd_sc_hd__nor4b_1
*I *1792:B I *D sky130_fd_sc_hd__nor4b_1
*I *1974:X O *D sky130_fd_sc_hd__buf_4
*CAP
1 *1793:B 0
2 *1797:B 0
3 *1820:B 0.000169707
4 *1818:B 0
5 *1819:B 8.88707e-05
6 *1804:B 3.65503e-05
7 *1803:B 0
8 *1802:B 0.00018277
9 *1801:B 7.28515e-05
10 *1800:B 9.96436e-05
11 *1799:B 9.09979e-05
12 *1798:B 0.000183933
13 *1796:B 0.000145269
14 *1795:B 0
15 *1794:B 0.000180749
16 *1792:B 0.000371807
17 *1974:X 0.000197017
18 *388:218 0.00059084
19 *388:193 0.000750536
20 *388:185 0.00121863
21 *388:168 0.0012478
22 *388:155 0.000360223
23 *388:134 0.000446597
24 *388:119 0.000347371
25 *388:102 0.000494868
26 *388:89 0.000503265
27 *388:81 0.000323211
28 *388:68 0.000493739
29 *388:53 0.000408276
30 *388:40 0.000233002
31 *388:27 0.000391895
32 *388:10 0.000471553
33 *388:8 0.000197017
34 *1792:B *398:16 1.14452e-05
35 *1792:B *400:166 1.24376e-05
36 *1792:B *400:179 0.000211891
37 *1794:B *1794:C 2.87244e-05
38 *1796:B *1796:C 2.87244e-05
39 *1798:B *1798:C 0.00018536
40 *1798:B *414:17 4.49778e-05
41 *1799:B *398:88 4.05745e-05
42 *1799:B *416:10 6.53382e-05
43 *1800:B *1800:A 5.3304e-05
44 *1800:B *398:101 2.58635e-05
45 *1800:B *398:118 4.97706e-05
46 *1800:B *414:93 1.18939e-05
47 *1801:B *1801:A 5.3304e-05
48 *1801:B *1801:C 7.44236e-05
49 *1802:B *398:137 0.000135037
50 *1802:B *414:110 1.36904e-05
51 *1802:B *414:122 1.33082e-05
52 *1804:B *1804:A 4.9662e-05
53 *1804:B *398:166 5.50049e-05
54 *1819:B *1819:A 7.80629e-05
55 *1819:B *1819:C 0.000131104
56 *1820:B *398:201 0.000394835
57 *1820:B *414:165 0
58 *1820:B *414:173 0.000324865
59 *388:8 *1793:A 2.95676e-05
60 *388:8 *398:10 6.68617e-05
61 *388:27 *398:16 0.000166522
62 *388:40 *398:16 8.72173e-05
63 *388:40 *398:24 0.000163858
64 *388:40 *398:41 3.64337e-05
65 *388:53 *398:41 0.000167996
66 *388:68 *398:41 5.11845e-05
67 *388:68 *398:56 0.000378203
68 *388:81 *414:17 6.70361e-05
69 *388:89 *398:88 0.000122622
70 *388:89 *414:21 1.00084e-05
71 *388:102 *398:88 2.50756e-05
72 *388:102 *398:118 3.18803e-05
73 *388:119 *398:118 0.000354934
74 *388:134 *1804:A 0
75 *388:134 *398:118 3.70187e-05
76 *388:134 *398:137 0.000155077
77 *388:155 *414:126 5.27196e-05
78 *388:168 *1804:A 6.05802e-05
79 *388:168 *414:126 6.98857e-05
80 *388:168 *414:138 5.62433e-06
81 *388:185 *1804:A 3.23857e-06
82 *388:185 *1805:B 0.000296947
83 *388:185 *389:28 0.000108681
84 *388:185 *389:41 0.000266667
85 *388:185 *389:50 0.000436669
86 *388:185 *389:59 0.000219648
87 *388:185 *389:74 0.000217484
88 *388:185 *389:83 0.000218013
89 *388:185 *389:107 0.000221174
90 *388:185 *389:120 6.16439e-05
91 *388:185 *398:166 1.24376e-05
92 *388:193 *415:126 2.46906e-05
93 *388:218 *1819:A 9.41704e-05
94 *388:218 *389:120 8.62876e-05
95 *388:218 *389:137 0.000203154
96 *388:218 *398:201 1.14452e-05
97 *388:218 *415:126 0
98 *1914:CLK *388:81 3.20961e-05
99 *137:17 *388:218 0.000599863
100 *137:31 *388:193 0.000227828
101 *137:31 *388:218 1.12863e-05
102 *222:17 *388:8 0.000188934
103 *223:13 *1794:B 0.000136743
104 *226:13 *1796:B 9.5877e-05
105 *231:17 *1799:B 5.3304e-05
106 *231:17 *388:89 3.47781e-05
107 *231:17 *388:102 0.000237851
108 *237:16 *1792:B 0.000100533
109 *237:16 *1800:B 2.46922e-05
110 *237:16 *388:40 7.70141e-05
111 *237:16 *388:53 0.000121635
112 *237:16 *388:68 0.000428411
113 *237:16 *388:89 5.7969e-05
114 *237:16 *388:102 1.35518e-05
115 *237:16 *388:119 0.000378435
116 *237:16 *388:134 0.000250781
117 *237:16 *388:155 2.34898e-05
118 *237:16 *388:185 0.0020789
119 *237:16 *388:218 0.000119451
120 *347:6 *388:81 1.46286e-05
121 *348:6 *1799:B 5.3304e-05
122 *354:6 *388:168 9.41704e-05
123 *363:16 *388:185 5.82713e-05
124 *369:10 *388:102 0
125 *369:95 *388:134 0
*RES
1 *1974:X *388:8 26.8529 
2 *388:8 *388:10 15 
3 *388:10 *1792:B 44.4836 
4 *388:10 *388:27 2.25786 
5 *388:27 *1794:B 41.0243 
6 *388:27 *388:40 3.31429 
7 *388:40 *1795:B 38 
8 *388:40 *388:53 3.37643 
9 *388:53 *1796:B 40.5479 
10 *388:53 *388:68 20.7793 
11 *388:68 *1798:B 26.5007 
12 *388:68 *388:81 2.9 
13 *388:81 *388:89 18.3764 
14 *388:89 *1799:B 40.0507 
15 *388:89 *388:102 4.81607 
16 *388:102 *1800:B 40.4132 
17 *388:102 *388:119 5.25107 
18 *388:119 *1801:B 39.595 
19 *388:119 *388:134 4.11179 
20 *388:134 *1802:B 41.3661 
21 *388:134 *388:155 2.49607 
22 *388:155 *1803:B 38 
23 *388:155 *388:168 19.5364 
24 *388:168 *1804:B 24.0979 
25 *388:168 *388:185 45.2843 
26 *388:185 *388:193 33.48 
27 *388:193 *1819:B 40.7136 
28 *388:193 *388:218 39.8393 
29 *388:218 *1818:B 38 
30 *388:218 *1820:B 43.7793 
31 *388:81 *1797:B 23 
32 *388:8 *1793:B 23 
*END

*D_NET *389 0.0122859
*CONN
*I *1816:B I *D sky130_fd_sc_hd__nor4b_1
*I *1817:B I *D sky130_fd_sc_hd__nor4b_1
*I *1815:B I *D sky130_fd_sc_hd__nor4b_1
*I *1814:B I *D sky130_fd_sc_hd__nor4b_1
*I *1811:B I *D sky130_fd_sc_hd__nor4b_1
*I *1813:B I *D sky130_fd_sc_hd__nor4b_1
*I *1812:B I *D sky130_fd_sc_hd__nor4b_1
*I *1809:B I *D sky130_fd_sc_hd__nor4b_1
*I *1810:B I *D sky130_fd_sc_hd__nor4b_1
*I *1808:B I *D sky130_fd_sc_hd__nor4b_1
*I *1807:B I *D sky130_fd_sc_hd__nor4b_1
*I *1805:B I *D sky130_fd_sc_hd__nor4b_1
*I *1806:B I *D sky130_fd_sc_hd__nor4b_1
*I *1975:X O *D sky130_fd_sc_hd__clkbuf_4
*CAP
1 *1816:B 0.000276252
2 *1817:B 0.000267665
3 *1815:B 8.74447e-05
4 *1814:B 0
5 *1811:B 0.000162082
6 *1813:B 9.81293e-05
7 *1812:B 0
8 *1809:B 0.000213227
9 *1810:B 0
10 *1808:B 0
11 *1807:B 0.000111469
12 *1805:B 0.00028783
13 *1806:B 3.3043e-05
14 *1975:X 0.000191719
15 *389:137 0.000701137
16 *389:120 0.000490478
17 *389:107 0.000334778
18 *389:87 0.000280207
19 *389:83 0.000227462
20 *389:74 0.000217569
21 *389:59 0.00039828
22 *389:50 0.000212498
23 *389:41 0.000242477
24 *389:28 0.000282254
25 *389:15 0.00034265
26 *389:6 0.000224762
27 *1805:B *1805:A 0.0001788
28 *1805:B *415:12 6.38342e-05
29 *1806:B *1806:C 2.02517e-05
30 *1807:B *1807:A 2.18409e-05
31 *1807:B *1807:C 9.41553e-05
32 *1807:B *414:138 0.000135037
33 *1807:B *416:52 1.46286e-05
34 *1809:B *399:74 7.08396e-05
35 *1811:B *1811:C 2.68258e-05
36 *1811:B *399:103 3.65917e-05
37 *1811:B *415:85 0.000175903
38 *1813:B *1813:A 9.90118e-05
39 *1813:B *1813:C 2.93335e-05
40 *1813:B *399:103 6.52749e-05
41 *1813:B *415:85 2.02872e-05
42 *1815:B *399:126 1.24376e-05
43 *1815:B *399:141 2.31875e-05
44 *1816:B *1816:C 0.000254825
45 *1817:B *1816:C 0.000146141
46 *1817:B *1817:A 1.59071e-05
47 *1817:B *1817:C 4.34464e-05
48 *389:6 *1985:A 6.06809e-06
49 *389:28 *415:12 9.93434e-05
50 *389:41 *415:10 5.86204e-05
51 *389:41 *415:12 4.94442e-05
52 *389:41 *415:43 0.000166003
53 *389:41 *415:52 1.05441e-05
54 *389:50 *415:52 0.000420253
55 *389:50 *415:61 1.12863e-05
56 *389:59 *415:61 0.000205135
57 *389:74 *415:61 0.000207336
58 *389:74 *415:70 1.12863e-05
59 *389:83 *415:70 0.00012857
60 *389:83 *415:107 8.79972e-05
61 *389:87 *1811:C 0
62 *389:107 *414:144 0
63 *389:107 *415:107 0.000179301
64 *389:120 *414:144 0
65 *1933:CLK *1816:B 5.47983e-06
66 *122:15 *1805:B 6.70361e-05
67 *123:13 *389:6 5.25626e-05
68 *124:13 *1807:B 0.000136743
69 *137:17 *389:120 6.29958e-05
70 *137:31 *389:120 0.000157964
71 *237:16 *389:120 0.000194894
72 *237:16 *389:137 0.000211607
73 *254:12 *1816:B 5.79559e-05
74 *356:147 *1805:B 0.000117809
75 *363:16 *1805:B 1.12863e-05
76 *388:185 *1805:B 0.000296947
77 *388:185 *389:28 0.000108681
78 *388:185 *389:41 0.000266667
79 *388:185 *389:50 0.000436669
80 *388:185 *389:59 0.000219648
81 *388:185 *389:74 0.000217484
82 *388:185 *389:83 0.000218013
83 *388:185 *389:107 0.000221174
84 *388:185 *389:120 6.16439e-05
85 *388:218 *389:120 8.62876e-05
86 *388:218 *389:137 0.000203154
*RES
1 *1975:X *389:6 25.5271 
2 *389:6 *1806:B 23.8493 
3 *389:6 *389:15 15 
4 *389:15 *1805:B 44.5457 
5 *389:15 *389:28 1.55357 
6 *389:28 *1807:B 41.0243 
7 *389:28 *389:41 3.66643 
8 *389:41 *1808:B 38 
9 *389:41 *389:50 5.77929 
10 *389:50 *1810:B 38 
11 *389:50 *389:59 2.96214 
12 *389:59 *1809:B 41.5214 
13 *389:59 *389:74 2.96214 
14 *389:74 *1812:B 38 
15 *389:74 *389:83 2.96214 
16 *389:83 *389:87 15.4971 
17 *389:87 *1813:B 25.5271 
18 *389:87 *1811:B 26.5214 
19 *389:83 *389:107 2.96214 
20 *389:107 *1814:B 38 
21 *389:107 *389:120 5.48929 
22 *389:120 *1815:B 39.6157 
23 *389:120 *389:137 17.9621 
24 *389:137 *1817:B 26.8529 
25 *389:137 *1816:B 28.3029 
*END

*D_NET *390 0.0389538
*CONN
*I *429:DIODE I *D sky130_fd_sc_hd__diode_2
*I *432:DIODE I *D sky130_fd_sc_hd__diode_2
*I *1975:A I *D sky130_fd_sc_hd__clkbuf_4
*I *431:DIODE I *D sky130_fd_sc_hd__diode_2
*I *1974:A I *D sky130_fd_sc_hd__buf_4
*I *430:DIODE I *D sky130_fd_sc_hd__diode_2
*I *1973:A I *D sky130_fd_sc_hd__buf_2
*I *1972:A I *D sky130_fd_sc_hd__buf_4
*I *1970:A I *D sky130_fd_sc_hd__buf_4
*I *1971:A I *D sky130_fd_sc_hd__clkbuf_4
*I *428:DIODE I *D sky130_fd_sc_hd__diode_2
*I *1968:A I *D sky130_fd_sc_hd__buf_4
*I *425:DIODE I *D sky130_fd_sc_hd__diode_2
*I *426:DIODE I *D sky130_fd_sc_hd__diode_2
*I *1969:A I *D sky130_fd_sc_hd__clkbuf_4
*I *427:DIODE I *D sky130_fd_sc_hd__diode_2
*I *1976:X O *D sky130_fd_sc_hd__clkbuf_4
*CAP
1 *429:DIODE 0
2 *432:DIODE 0
3 *1975:A 0
4 *431:DIODE 0.000241735
5 *1974:A 2.79004e-05
6 *430:DIODE 0
7 *1973:A 9.36745e-05
8 *1972:A 0
9 *1970:A 2.54161e-05
10 *1971:A 0.000142855
11 *428:DIODE 8.81957e-05
12 *1968:A 0.000196321
13 *425:DIODE 0
14 *426:DIODE 0
15 *1969:A 0
16 *427:DIODE 7.83991e-05
17 *1976:X 0.000494235
18 *390:208 0.000138577
19 *390:195 0.000171398
20 *390:191 0.00166294
21 *390:180 0.0020924
22 *390:169 0.00205223
23 *390:153 0.000129728
24 *390:149 0.00290646
25 *390:137 0.00142927
26 *390:118 0.00074775
27 *390:114 0.000506496
28 *390:53 0.000535236
29 *390:45 0.000679899
30 *390:43 0.000426774
31 *390:37 0.00324398
32 *390:35 0.00308795
33 *390:33 0.000699909
34 *390:20 0.00063651
35 *390:16 0.00104051
36 *390:14 0.00139546
37 *390:14 *412:59 0
38 *390:14 *412:61 0
39 *390:33 *405:89 0
40 *390:33 *405:96 0
41 *390:35 *405:70 0
42 *390:35 *405:77 0
43 *390:35 *405:89 0
44 *390:37 *1866:RESET_B 0
45 *390:37 *401:166 0
46 *390:37 *404:130 0
47 *390:37 *404:137 0
48 *390:37 *404:148 0
49 *390:37 *405:23 0
50 *390:37 *405:30 0
51 *390:37 *405:42 0
52 *390:37 *405:49 0
53 *390:37 *405:56 0
54 *390:37 *405:63 0
55 *390:43 *1848:RESET_B 0
56 *390:43 *401:166 0
57 *390:53 *391:10 4.41324e-05
58 *390:53 *392:18 7.51623e-05
59 *390:137 *412:130 2.27197e-05
60 *390:137 *416:126 0.00034789
61 *390:149 *400:158 5.30518e-05
62 *390:149 *412:47 6.26767e-05
63 *390:149 *416:120 0.000168484
64 *390:149 *416:126 0.000226805
65 *390:169 *400:158 0.000987296
66 *390:169 *400:162 0
67 *390:169 *400:194 0
68 *390:180 *400:194 0
69 *390:191 *400:194 0
70 *390:191 *400:200 0.00133721
71 *390:191 *414:10 0
72 *390:191 *414:87 0
73 *390:191 *416:31 0.00051847
74 *390:195 *1985:A 9.5877e-05
75 *390:208 *1985:A 8.264e-05
76 *390:208 *398:166 0.000194318
77 *390:208 *414:138 1.12863e-05
78 *1849:CLK *1968:A 0.000141621
79 *1851:CLK *390:37 0.000478238
80 *1851:CLK *390:43 1.01436e-05
81 *1852:CLK *390:37 0
82 *1869:CLK *390:37 0.000222113
83 *1870:CLK *390:37 0.000168754
84 *1873:D *428:DIODE 9.41704e-05
85 *1875:CLK *1971:A 5.50106e-05
86 *1878:CLK *390:20 0.000171906
87 *1879:D *1970:A 5.50049e-05
88 *1886:CLK *390:14 0.000135547
89 *123:13 *390:195 9.5877e-05
90 *123:13 *390:208 9.58714e-05
91 *154:13 *390:53 2.07484e-05
92 *207:15 *1973:A 9.58714e-05
93 *207:15 *390:153 1.41077e-05
94 *222:17 *1974:A 5.50106e-05
95 *223:13 *431:DIODE 0.000115331
96 *273:6 *390:43 2.13733e-05
97 *273:6 *390:45 4.46439e-05
98 *273:6 *390:53 5.62977e-05
99 *275:6 *1968:A 2.63049e-05
100 *281:10 *390:37 3.3746e-05
101 *283:10 *390:37 0.000491534
102 *285:10 *390:37 0.000115207
103 *298:10 *390:37 0.000130056
104 *304:10 *1971:A 9.60498e-05
105 *306:6 *427:DIODE 9.64943e-05
106 *306:6 *390:33 9.67842e-05
107 *308:8 *390:20 4.21893e-05
108 *309:18 *390:16 8.94394e-05
109 *310:12 *390:16 5.09885e-05
110 *361:18 *390:14 0.000137361
111 *361:18 *390:137 4.5617e-05
112 *361:24 *390:149 0
113 *374:110 *390:43 0.000324733
114 *375:12 *390:35 0.000279936
115 *375:14 *390:35 7.93051e-05
116 *375:14 *390:37 8.62783e-05
117 *375:16 *390:37 0.000279936
118 *375:62 *390:16 4.6318e-06
119 *375:62 *390:20 0.000242225
120 *375:62 *390:33 0.000397994
121 *375:62 *390:35 0.000114083
122 *376:10 *390:37 0.000169665
123 *376:14 *390:37 0.00126828
124 *376:43 *390:37 0.000654226
125 *376:71 *390:37 0.000218952
126 *377:12 *390:37 0
127 *377:73 *390:20 6.16531e-05
128 *379:25 *390:14 5.94125e-05
129 *380:12 *1970:A 7.53384e-06
130 *380:12 *390:16 0.000152625
131 *380:25 *390:16 0.000235072
132 *380:38 *390:16 0.000171906
133 *380:51 *390:16 0.000246767
134 *380:62 *390:16 0.000266259
135 *386:8 *390:118 5.56279e-05
136 *386:16 *390:118 4.288e-05
137 *386:16 *390:137 0.000146234
138 *386:25 *390:137 0
139 *386:162 *390:149 0.000587984
140 *387:10 *1973:A 0
*RES
1 *1976:X *390:14 46.12 
2 *390:14 *390:16 17.7521 
3 *390:16 *390:20 21.4836 
4 *390:20 *427:DIODE 24.0979 
5 *390:20 *390:33 22.0014 
6 *390:33 *390:35 6.13143 
7 *390:35 *390:37 67.4043 
8 *390:37 *390:43 20.4686 
9 *390:43 *390:45 2.05071 
10 *390:45 *390:53 37.6436 
11 *390:53 *1969:A 23 
12 *390:45 *426:DIODE 23 
13 *390:43 *425:DIODE 23 
14 *390:37 *1968:A 41.3971 
15 *390:35 *428:DIODE 39.0979 
16 *390:33 *1971:A 40.5271 
17 *390:16 *1970:A 38.6214 
18 *390:14 *390:114 17.0714 
19 *390:114 *390:118 6.83571 
20 *390:118 *1972:A 23 
21 *390:118 *390:137 37.4364 
22 *390:137 *390:149 40.2714 
23 *390:149 *390:153 15.6214 
24 *390:153 *1973:A 24.9471 
25 *390:153 *430:DIODE 23 
26 *390:149 *390:169 38.8807 
27 *390:169 *1974:A 38.6214 
28 *390:169 *390:180 4.01857 
29 *390:180 *431:DIODE 41.48 
30 *390:180 *390:191 35.3593 
31 *390:191 *390:195 16.0979 
32 *390:195 *1975:A 23 
33 *390:195 *390:208 33.7079 
34 *390:208 *432:DIODE 23 
35 *390:114 *429:DIODE 23 
*END

*D_NET *391 0.0201554
*CONN
*I *1736:C I *D sky130_fd_sc_hd__nor4b_1
*I *1721:C I *D sky130_fd_sc_hd__nor4b_1
*I *1722:C I *D sky130_fd_sc_hd__nor4b_1
*I *1720:C I *D sky130_fd_sc_hd__nor4b_1
*I *1717:C I *D sky130_fd_sc_hd__nor4b_1
*I *1719:C I *D sky130_fd_sc_hd__nor4b_1
*I *1715:C I *D sky130_fd_sc_hd__nor4b_1
*I *1716:C I *D sky130_fd_sc_hd__nor4b_1
*I *1714:C I *D sky130_fd_sc_hd__nor4b_1
*I *1713:C I *D sky130_fd_sc_hd__nor4b_1
*I *1711:C I *D sky130_fd_sc_hd__nor4b_1
*I *1709:C I *D sky130_fd_sc_hd__nor4b_1
*I *1710:C I *D sky130_fd_sc_hd__nor4b_1
*I *1708:C I *D sky130_fd_sc_hd__nor4b_1
*I *1712:C I *D sky130_fd_sc_hd__nor4b_1
*I *1718:C I *D sky130_fd_sc_hd__nor4b_1
*I *1977:X O *D sky130_fd_sc_hd__buf_4
*CAP
1 *1736:C 0.000308129
2 *1721:C 0
3 *1722:C 0.000268164
4 *1720:C 0.000200267
5 *1717:C 7.23688e-05
6 *1719:C 0.000137204
7 *1715:C 2.32701e-05
8 *1716:C 0.000121449
9 *1714:C 0
10 *1713:C 0.000122215
11 *1711:C 3.15277e-05
12 *1709:C 6.94711e-05
13 *1710:C 9.92229e-05
14 *1708:C 7.32329e-05
15 *1712:C 0
16 *1718:C 0
17 *1977:X 9.2819e-05
18 *391:183 0.000352039
19 *391:105 0.000153743
20 *391:72 0.000310164
21 *391:70 0.000354733
22 *391:68 0.00063654
23 *391:57 0.000610654
24 *391:53 0.000301985
25 *391:49 0.000402161
26 *391:43 0.000202495
27 *391:39 0.000428886
28 *391:33 0.000373822
29 *391:29 0.000428835
30 *391:20 0.000537523
31 *391:10 0.0030244
32 *391:8 0.00294392
33 *1736:C *416:165 0.000274514
34 *391:8 *400:26 6.32688e-05
35 *391:10 *435:DIODE 5.56203e-05
36 *391:10 *392:30 0
37 *391:10 *393:40 5.82008e-05
38 *391:10 *400:26 0.00014738
39 *391:10 *416:173 0.000164019
40 *1708:A *1708:C 0.000146822
41 *1710:A *1710:C 3.01925e-05
42 *1713:A *1713:C 0.000148064
43 *1713:B *1713:C 0.00017033
44 *1715:A *1715:C 5.3304e-05
45 *1717:A *1717:C 2.36126e-05
46 *1717:B *1717:C 6.42654e-05
47 *1718:B *391:20 3.22051e-05
48 *1718:B *391:29 4.53056e-05
49 *1719:B *1719:C 0.000139982
50 *1719:B *391:39 9.41704e-05
51 *1720:B *1720:C 6.2552e-05
52 *1720:B *391:29 1.59094e-05
53 *1722:B *1722:C 1.46286e-05
54 *1723:D_N *391:10 0
55 *1736:A *1736:C 0.000100805
56 *1736:B *1736:C 1.59071e-05
57 *1828:CLK *1716:C 1.11037e-05
58 *1832:CLK *1720:C 7.86509e-06
59 *132:13 *391:20 1.32314e-05
60 *139:17 *391:33 0.000176135
61 *139:17 *391:39 0.000273623
62 *140:13 *391:20 0
63 *140:21 *1720:C 2.93845e-05
64 *140:21 *391:33 4.15283e-06
65 *157:15 *1736:C 1.21972e-05
66 *159:17 *1708:C 0.000144494
67 *159:17 *1710:C 0.000182832
68 *181:23 *391:68 0
69 *192:21 *1711:C 0.000144494
70 *192:21 *1713:C 3.44001e-05
71 *192:21 *391:68 0
72 *225:17 *1716:C 4.34745e-05
73 *225:17 *391:39 2.05503e-05
74 *225:17 *391:43 0.000152668
75 *225:17 *391:49 0.000166513
76 *225:17 *391:53 5.50106e-05
77 *240:12 *1710:C 0.000350754
78 *251:10 *1720:C 9.90123e-06
79 *259:12 *1720:C 5.47983e-06
80 *260:10 *1722:C 0.000357566
81 *267:6 *1709:C 2.93335e-05
82 *289:14 *1713:C 1.10658e-05
83 *322:10 *1716:C 6.97002e-05
84 *322:10 *391:53 2.80512e-05
85 *381:6 *1736:C 1.56665e-05
86 *381:14 *391:10 0
87 *381:18 *1722:C 0
88 *381:28 *1722:C 0.00018196
89 *381:39 *1722:C 2.72789e-05
90 *381:39 *391:20 0.000377874
91 *381:46 *1722:C 0.000172197
92 *381:56 *391:39 0
93 *381:56 *391:43 7.24504e-05
94 *381:58 *391:43 4.6318e-06
95 *381:58 *391:49 8.16253e-05
96 *381:92 *391:70 2.69104e-05
97 *381:96 *1708:C 2.50756e-05
98 *381:96 *391:70 2.8183e-05
99 *381:96 *391:72 8.32764e-05
100 *381:120 *1709:C 7.87147e-05
101 *382:33 *1722:C 2.04934e-05
102 *382:33 *391:33 8.59381e-05
103 *382:35 *391:33 9.80563e-05
104 *382:35 *391:39 1.12863e-05
105 *382:37 *391:39 0.000296499
106 *382:39 *391:39 3.39102e-05
107 *382:49 *391:57 3.733e-05
108 *382:49 *391:68 0.000665464
109 *382:49 *391:70 5.86204e-05
110 *382:51 *1711:C 7.25404e-05
111 *382:51 *1713:C 5.3304e-05
112 *382:88 *1713:C 0.000181125
113 *382:120 *391:53 7.90912e-05
114 *382:126 *391:57 0.000191419
115 *382:155 *1715:C 5.3304e-05
116 *383:45 *391:10 6.07306e-05
117 *390:53 *391:10 4.41324e-05
*RES
1 *1977:X *391:8 39.9057 
2 *391:8 *391:10 45.3954 
3 *391:10 *391:20 23.2961 
4 *391:20 *1718:C 23 
5 *391:20 *391:29 2.54786 
6 *391:29 *391:33 17.61 
7 *391:33 *391:39 20.4686 
8 *391:39 *391:43 17.2579 
9 *391:43 *391:49 17.755 
10 *391:49 *391:53 3.50071 
11 *391:53 *391:57 17.9621 
12 *391:57 *1712:C 38 
13 *391:57 *391:68 10.5229 
14 *391:68 *391:70 2.61 
15 *391:70 *391:72 2.61 
16 *391:72 *1708:C 40.4236 
17 *391:72 *1710:C 41.9771 
18 *391:70 *1709:C 39.5743 
19 *391:68 *391:105 15 
20 *391:105 *1711:C 24.5743 
21 *391:105 *1713:C 27.4743 
22 *391:53 *1714:C 23 
23 *391:49 *1716:C 25.5479 
24 *391:43 *1715:C 38.6214 
25 *391:39 *1719:C 25.5479 
26 *391:33 *1717:C 39.6157 
27 *391:29 *1720:C 26.5007 
28 *391:10 *391:183 1.56393 
29 *391:183 *1722:C 45.25 
30 *391:183 *1721:C 38 
31 *391:8 *1736:C 44.3593 
*END

*D_NET *392 0.0106581
*CONN
*I *1735:A I *D sky130_fd_sc_hd__nor4b_1
*I *1734:A I *D sky130_fd_sc_hd__nor4b_1
*I *1733:A I *D sky130_fd_sc_hd__nor4b_1
*I *1732:A I *D sky130_fd_sc_hd__nor4b_1
*I *1731:A I *D sky130_fd_sc_hd__nor4b_1
*I *1730:A I *D sky130_fd_sc_hd__nor4b_1
*I *1729:A I *D sky130_fd_sc_hd__nor4b_1
*I *1728:A I *D sky130_fd_sc_hd__nor4b_1
*I *1727:A I *D sky130_fd_sc_hd__nor4b_1
*I *1726:A I *D sky130_fd_sc_hd__nor4b_1
*I *1725:A I *D sky130_fd_sc_hd__nor4b_1
*I *1723:A I *D sky130_fd_sc_hd__nor4b_1
*I *1724:A I *D sky130_fd_sc_hd__nor4b_1
*I *1978:X O *D sky130_fd_sc_hd__clkbuf_4
*CAP
1 *1735:A 0
2 *1734:A 0.000169139
3 *1733:A 0
4 *1732:A 0.000103265
5 *1731:A 0
6 *1730:A 0.000103265
7 *1729:A 0
8 *1728:A 0.000153896
9 *1727:A 0
10 *1726:A 0
11 *1725:A 0
12 *1723:A 0
13 *1724:A 0.000148647
14 *1978:X 0.000227813
15 *392:65 0.000100297
16 *392:46 0.000353062
17 *392:42 0.000373991
18 *392:36 0.000496532
19 *392:30 0.000374624
20 *392:28 0.000409635
21 *392:26 0.000223502
22 *392:24 0.00033004
23 *392:22 0.000226775
24 *392:20 0.00033004
25 *392:18 0.000216338
26 *392:16 0.000402064
27 *392:14 0.000355447
28 *1728:A *1728:C 7.25159e-05
29 *1734:A *1734:C 0.000156439
30 *392:14 *393:6 0.000188927
31 *392:14 *393:10 1.12919e-05
32 *392:14 *416:173 0.000183361
33 *392:65 *393:40 3.40698e-05
34 *1723:B *392:65 0.000188316
35 *1723:D_N *392:65 1.12863e-05
36 *1725:B *392:46 3.44036e-05
37 *1726:B *392:36 0.000175903
38 *1728:B *1728:A 0.000178517
39 *1730:B *1730:A 0.000178517
40 *1732:B *1732:A 0.000178517
41 *1734:B *1734:A 2.53307e-05
42 *1735:B *392:14 1.12863e-05
43 *1735:B *392:16 0.000193539
44 *1735:B *392:18 7.89732e-05
45 *145:19 *1724:A 0.000166877
46 *145:19 *392:46 0.000175903
47 *146:13 *392:36 0.000178227
48 *151:13 *1730:A 0.00017761
49 *153:13 *1732:A 0.00017761
50 *155:13 *1734:A 9.02461e-05
51 *156:17 *392:14 0.000232288
52 *263:10 *1724:A 5.56279e-05
53 *263:10 *392:46 0.000209902
54 *381:14 *392:14 5.44889e-06
55 *382:14 *392:42 0.000429602
56 *383:8 *392:18 0.000127585
57 *383:10 *392:18 1.12863e-05
58 *383:10 *392:20 0.000185508
59 *383:12 *392:20 3.64337e-05
60 *383:12 *392:22 0.000207543
61 *383:14 *392:22 1.12863e-05
62 *383:14 *392:24 0.000185508
63 *383:16 *392:24 3.64337e-05
64 *383:16 *392:26 0.000207543
65 *383:18 *392:26 1.12863e-05
66 *383:18 *392:28 0.000224204
67 *383:18 *392:30 4.93587e-05
68 *383:20 *392:30 0.000156827
69 *383:22 *392:30 1.12863e-05
70 *383:22 *392:36 0.000158098
71 *383:24 *392:36 6.38433e-05
72 *390:53 *392:18 7.51623e-05
73 *391:10 *392:30 0
*RES
1 *1978:X *392:14 44.4007 
2 *392:14 *392:16 2.61 
3 *392:16 *392:18 2.96214 
4 *392:18 *392:20 2.96214 
5 *392:20 *392:22 2.96214 
6 *392:22 *392:24 2.96214 
7 *392:24 *392:26 2.96214 
8 *392:26 *392:28 2.96214 
9 *392:28 *392:30 2.96214 
10 *392:30 *392:36 20.4893 
11 *392:36 *392:42 35.7793 
12 *392:42 *392:46 3.02429 
13 *392:46 *1724:A 26.6664 
14 *392:46 *392:65 32.61 
15 *392:65 *1723:A 23 
16 *392:42 *1725:A 23 
17 *392:36 *1726:A 23 
18 *392:30 *1727:A 38 
19 *392:28 *1728:A 41.0243 
20 *392:26 *1729:A 38 
21 *392:24 *1730:A 40.5271 
22 *392:22 *1731:A 38 
23 *392:20 *1732:A 40.5271 
24 *392:18 *1733:A 38 
25 *392:16 *1734:A 41.8736 
26 *392:14 *1735:A 38 
*END

*D_NET *393 0.0121206
*CONN
*I *1735:C I *D sky130_fd_sc_hd__nor4b_1
*I *1734:C I *D sky130_fd_sc_hd__nor4b_1
*I *1733:C I *D sky130_fd_sc_hd__nor4b_1
*I *1732:C I *D sky130_fd_sc_hd__nor4b_1
*I *1731:C I *D sky130_fd_sc_hd__nor4b_1
*I *1730:C I *D sky130_fd_sc_hd__nor4b_1
*I *1729:C I *D sky130_fd_sc_hd__nor4b_1
*I *1728:C I *D sky130_fd_sc_hd__nor4b_1
*I *1727:C I *D sky130_fd_sc_hd__nor4b_1
*I *1726:C I *D sky130_fd_sc_hd__nor4b_1
*I *1725:C I *D sky130_fd_sc_hd__nor4b_1
*I *1723:C I *D sky130_fd_sc_hd__nor4b_1
*I *1724:C I *D sky130_fd_sc_hd__nor4b_1
*I *1979:X O *D sky130_fd_sc_hd__clkbuf_4
*CAP
1 *1735:C 0
2 *1734:C 0.000217282
3 *1733:C 0
4 *1732:C 0.000222463
5 *1731:C 0
6 *1730:C 0.000217781
7 *1729:C 0
8 *1728:C 0.000199985
9 *1727:C 0
10 *1726:C 0.000224033
11 *1725:C 0.000212484
12 *1723:C 4.01155e-05
13 *1724:C 0
14 *1979:X 0.000118416
15 *393:40 0.000319146
16 *393:32 0.000468858
17 *393:28 0.000458623
18 *393:26 0.000407605
19 *393:24 0.000135512
20 *393:22 0.000366317
21 *393:20 0.000170912
22 *393:18 0.000357872
23 *393:16 0.000140091
24 *393:14 0.000362553
25 *393:12 0.000147689
26 *393:10 0.00037337
27 *393:6 0.000173844
28 *1723:B *393:32 0.00021263
29 *1725:B *1725:C 0.000216755
30 *1726:B *1726:C 0.000220321
31 *1728:A *1728:C 7.25159e-05
32 *1728:B *1728:C 1.46286e-05
33 *1730:B *1730:C 0.000219368
34 *1732:B *1732:C 0.000219368
35 *1734:A *1734:C 0.000156439
36 *1734:B *1734:C 9.87985e-06
37 *1735:B *393:10 0.000132665
38 *1735:B *393:12 0.000140958
39 *1838:CLK *1725:C 7.86509e-06
40 *1842:CLK *1728:C 7.86509e-06
41 *1842:D *1728:C 5.47983e-06
42 *1844:CLK *1730:C 1.11037e-05
43 *1848:CLK *1734:C 1.11037e-05
44 *156:17 *393:6 0.000146822
45 *263:10 *1725:C 1.08287e-05
46 *264:12 *1725:C 1.8788e-05
47 *381:14 *393:10 0.000167443
48 *381:14 *393:12 0.000268221
49 *381:14 *393:14 0.000169674
50 *381:14 *393:16 0.000271373
51 *381:14 *393:18 0.000169674
52 *381:14 *393:20 0.000271373
53 *381:14 *393:22 0.000224345
54 *381:14 *393:24 0.000216999
55 *381:14 *393:26 0.000169674
56 *381:14 *393:28 0.000429602
57 *381:14 *393:32 0.00021039
58 *383:8 *393:12 0.000129504
59 *383:8 *393:14 1.14452e-05
60 *383:10 *393:14 0.00016046
61 *383:10 *393:16 3.70187e-05
62 *383:12 *393:16 0.000235293
63 *383:12 *393:18 1.14452e-05
64 *383:14 *393:18 0.00016046
65 *383:14 *393:20 3.70187e-05
66 *383:16 *393:20 0.000235293
67 *383:16 *393:22 1.14452e-05
68 *383:18 *393:22 0.000216051
69 *383:18 *393:24 5.80848e-05
70 *383:20 *393:24 0.00015675
71 *383:20 *393:26 1.14452e-05
72 *383:22 *393:26 0.00016046
73 *383:22 *393:28 1.14452e-05
74 *383:24 *393:28 0.000422629
75 *383:24 *393:32 1.14452e-05
76 *383:37 *1725:C 0
77 *383:45 *393:40 1.12863e-05
78 *391:10 *393:40 5.82008e-05
79 *392:14 *393:6 0.000188927
80 *392:14 *393:10 1.12919e-05
81 *392:65 *393:40 3.40698e-05
*RES
1 *1979:X *393:6 26.0036 
2 *393:6 *393:10 17.2579 
3 *393:10 *393:12 3.66643 
4 *393:12 *393:14 2.25786 
5 *393:14 *393:16 3.66643 
6 *393:16 *393:18 2.25786 
7 *393:18 *393:20 3.66643 
8 *393:20 *393:22 2.96214 
9 *393:22 *393:24 2.96214 
10 *393:24 *393:26 2.25786 
11 *393:26 *393:28 5.77929 
12 *393:28 *393:32 17.9621 
13 *393:32 *393:40 34.4329 
14 *393:40 *1724:C 23 
15 *393:32 *1723:C 23.8493 
16 *393:28 *1725:C 41.3764 
17 *393:26 *1726:C 41.3764 
18 *393:24 *1727:C 38 
19 *393:22 *1728:C 41.5214 
20 *393:20 *1729:C 38 
21 *393:18 *1730:C 41.3764 
22 *393:16 *1731:C 38 
23 *393:14 *1732:C 41.3764 
24 *393:12 *1733:C 38 
25 *393:10 *1734:C 41.3764 
26 *393:6 *1735:C 23 
*END

*D_NET *394 0.0229344
*CONN
*I *1738:C I *D sky130_fd_sc_hd__nor4b_1
*I *1739:C I *D sky130_fd_sc_hd__nor4b_1
*I *1741:C I *D sky130_fd_sc_hd__nor4b_1
*I *1745:C I *D sky130_fd_sc_hd__nor4b_1
*I *1746:C I *D sky130_fd_sc_hd__nor4b_1
*I *1749:C I *D sky130_fd_sc_hd__nor4b_1
*I *1762:C I *D sky130_fd_sc_hd__nor4b_1
*I *1764:C I *D sky130_fd_sc_hd__nor4b_1
*I *1763:C I *D sky130_fd_sc_hd__nor4b_1
*I *1747:C I *D sky130_fd_sc_hd__nor4b_1
*I *1748:C I *D sky130_fd_sc_hd__nor4b_1
*I *1744:C I *D sky130_fd_sc_hd__nor4b_1
*I *1742:C I *D sky130_fd_sc_hd__nor4b_1
*I *1743:C I *D sky130_fd_sc_hd__nor4b_1
*I *1740:C I *D sky130_fd_sc_hd__nor4b_1
*I *1737:C I *D sky130_fd_sc_hd__nor4b_1
*I *1980:X O *D sky130_fd_sc_hd__buf_4
*CAP
1 *1738:C 0
2 *1739:C 0.000212203
3 *1741:C 0
4 *1745:C 0.000125349
5 *1746:C 0.000114486
6 *1749:C 0.000395158
7 *1762:C 0.000131363
8 *1764:C 0.000121833
9 *1763:C 0
10 *1747:C 7.16147e-06
11 *1748:C 0.000253025
12 *1744:C 9.3344e-05
13 *1742:C 3.80122e-05
14 *1743:C 0.000158877
15 *1740:C 2.93686e-05
16 *1737:C 7.4935e-05
17 *1980:X 0.000402144
18 *394:163 0.000225208
19 *394:157 0.000347382
20 *394:153 0.00144542
21 *394:151 0.00151075
22 *394:147 0.000652509
23 *394:134 0.000346914
24 *394:128 0.000542167
25 *394:113 0.000580506
26 *394:100 0.000467926
27 *394:94 0.000408568
28 *394:81 0.000204963
29 *394:68 0.000348819
30 *394:57 0.000460486
31 *394:47 0.000882332
32 *394:35 0.00100183
33 *394:29 0.000466336
34 *394:10 0.000696818
35 *1737:C *1737:A 6.91845e-05
36 *1737:C *416:163 5.94125e-05
37 *1739:C *1739:A 2.4754e-05
38 *1743:C *1743:A 9.41704e-05
39 *1744:C *1744:A 1.21972e-05
40 *1745:C *1745:A 2.02872e-05
41 *1746:C *1746:A 5.94258e-05
42 *1747:C *403:42 1.37702e-05
43 *1748:C *1748:A 0.000182081
44 *1749:C *1749:A 1.88805e-05
45 *1749:C *403:42 9.72821e-05
46 *1762:C *403:27 2.46906e-05
47 *1764:C *1764:A 4.03669e-05
48 *394:10 *1737:A 0.000137361
49 *394:10 *1980:A 3.22879e-05
50 *394:10 *400:48 2.93747e-05
51 *394:29 *433:DIODE 8.62783e-05
52 *394:29 *1737:A 1.22906e-05
53 *394:29 *400:69 5.3304e-05
54 *394:29 *400:82 2.46345e-05
55 *394:29 *416:163 0.000128583
56 *394:35 *1737:A 5.58975e-06
57 *394:35 *403:70 3.85802e-05
58 *394:35 *403:72 8.54797e-05
59 *394:47 *403:66 0.000178517
60 *394:57 *1740:A 1.75562e-05
61 *394:57 *400:82 1.84329e-05
62 *394:57 *403:70 4.2812e-06
63 *394:68 *400:82 0.000160723
64 *394:68 *403:58 5.80963e-05
65 *394:68 *403:66 1.9628e-05
66 *394:81 *400:82 0.000269151
67 *394:81 *403:58 1.99391e-05
68 *394:94 *400:82 0.000191505
69 *394:94 *403:54 4.15283e-06
70 *394:100 *403:52 0.000128417
71 *394:100 *403:54 5.95079e-05
72 *394:113 *403:50 0.000127433
73 *394:113 *403:52 8.89816e-05
74 *394:128 *403:46 2.51382e-05
75 *394:128 *403:48 0.000237072
76 *394:128 *403:50 6.38433e-05
77 *394:134 *1746:A 6.17437e-06
78 *394:147 *403:29 0
79 *394:151 *403:33 5.40971e-05
80 *394:151 *403:42 5.40241e-05
81 *394:153 *403:29 0.00308232
82 *394:153 *416:130 2.3529e-05
83 *394:163 *403:21 5.11805e-05
84 *394:163 *416:128 4.48671e-05
85 *394:163 *416:130 2.22183e-05
86 *1738:B *394:29 3.80607e-05
87 *1739:B *1739:C 1.76557e-05
88 *1739:B *394:47 9.03964e-06
89 *1740:B *1740:C 5.56356e-05
90 *1740:B *394:57 4.72268e-05
91 *1741:B *394:47 2.31687e-05
92 *1742:B *1742:C 5.3304e-05
93 *1743:B *1743:C 2.31687e-05
94 *1744:B *1744:C 4.07999e-05
95 *1745:B *1745:C 1.46286e-05
96 *1746:B *1746:C 1.97716e-05
97 *1747:B *1747:C 6.83591e-06
98 *1748:B *1748:C 2.58635e-05
99 *1749:B *1749:C 4.81311e-05
100 *1763:B *1764:C 0.00018304
101 *1852:CLK *394:29 3.23857e-06
102 *1852:CLK *394:35 0
103 *1860:CLK *1748:C 3.23857e-06
104 *158:15 *394:10 8.25282e-05
105 *160:19 *394:29 3.54168e-05
106 *162:17 *1739:C 0.000229179
107 *162:17 *394:47 8.55621e-05
108 *164:17 *394:68 2.11157e-05
109 *166:17 *394:81 0.000219882
110 *166:17 *394:94 0.000170092
111 *168:13 *1745:C 5.3304e-05
112 *168:13 *394:100 0.000135037
113 *169:13 *394:134 3.66555e-05
114 *171:13 *394:151 1.76557e-05
115 *173:17 *1749:C 4.67488e-05
116 *173:17 *394:147 0
117 *187:13 *1762:C 8.88657e-05
118 *187:13 *394:157 0.000228848
119 *189:21 *1764:C 0.000100803
120 *281:10 *1739:C 9.84794e-05
121 *282:6 *394:57 2.812e-05
122 *290:10 *1749:C 1.08287e-05
123 *307:10 *1764:C 0.000359938
124 *359:12 *394:153 0.000476532
125 *359:21 *394:153 0.000500482
126 *360:18 *394:153 0
127 *384:12 *1764:C 1.62529e-05
128 *384:18 *1764:C 1.55613e-05
129 *384:50 *394:57 1.68817e-05
130 *384:56 *394:57 7.41877e-05
131 *384:66 *394:47 6.53491e-05
*RES
1 *1980:X *394:10 45.3121 
2 *394:10 *1737:C 39.4707 
3 *394:10 *394:29 19.8057 
4 *394:29 *394:35 33.6664 
5 *394:35 *394:47 38.0579 
6 *394:47 *394:57 36.2143 
7 *394:57 *1740:C 23.6214 
8 *394:57 *394:68 17.2579 
9 *394:68 *1743:C 40.5479 
10 *394:68 *394:81 3.66643 
11 *394:81 *1742:C 38.6214 
12 *394:81 *394:94 17.61 
13 *394:94 *394:100 19.1843 
14 *394:100 *1744:C 39.595 
15 *394:100 *394:113 2.96214 
16 *394:113 *1748:C 42.3293 
17 *394:113 *394:128 19.3707 
18 *394:128 *394:134 18.48 
19 *394:134 *1747:C 38.1605 
20 *394:134 *394:147 16.2014 
21 *394:147 *394:151 17.5271 
22 *394:151 *394:153 41.6979 
23 *394:153 *394:157 17.5271 
24 *394:157 *394:163 32.61 
25 *394:163 *1763:C 23 
26 *394:163 *1764:C 27.9093 
27 *394:157 *1762:C 25.5271 
28 *394:147 *1749:C 28.7586 
29 *394:128 *1746:C 24.9471 
30 *394:94 *1745:C 25.0507 
31 *394:47 *1741:C 23 
32 *394:35 *1739:C 27.9507 
33 *394:29 *1738:C 23 
*END

*D_NET *395 0.0105103
*CONN
*I *1761:C I *D sky130_fd_sc_hd__nor4b_1
*I *1760:C I *D sky130_fd_sc_hd__nor4b_1
*I *1759:C I *D sky130_fd_sc_hd__nor4b_1
*I *1758:C I *D sky130_fd_sc_hd__nor4b_1
*I *1756:C I *D sky130_fd_sc_hd__nor4b_1
*I *1757:C I *D sky130_fd_sc_hd__nor4b_1
*I *1754:C I *D sky130_fd_sc_hd__nor4b_1
*I *1755:C I *D sky130_fd_sc_hd__nor4b_1
*I *1753:C I *D sky130_fd_sc_hd__nor4b_1
*I *1752:C I *D sky130_fd_sc_hd__nor4b_1
*I *1751:C I *D sky130_fd_sc_hd__nor4b_1
*I *1750:C I *D sky130_fd_sc_hd__nor4b_1
*I *1981:X O *D sky130_fd_sc_hd__clkbuf_4
*CAP
1 *1761:C 0.000222655
2 *1760:C 3.56282e-05
3 *1759:C 0.000177283
4 *1758:C 8.56236e-05
5 *1756:C 2.98451e-05
6 *1757:C 0.000181572
7 *1754:C 1.56031e-05
8 *1755:C 0.000112421
9 *1753:C 0
10 *1752:C 3.22151e-05
11 *1751:C 0.000145274
12 *1750:C 5.91845e-05
13 *1981:X 0.000163546
14 *395:128 0.00048419
15 *395:115 0.000442203
16 *395:104 0.000212067
17 *395:93 0.000193933
18 *395:80 0.000370587
19 *395:69 0.000272067
20 *395:58 0.000350739
21 *395:51 0.000239346
22 *395:34 0.000271561
23 *395:32 0.000218629
24 *395:19 0.000342329
25 *395:6 0.000295367
26 *1750:C *1750:A 1.89688e-05
27 *1750:C *1981:A 1.14154e-05
28 *1751:C *1753:A 0.000137651
29 *1755:C *1755:A 2.46906e-05
30 *1757:C *1757:A 0.00011529
31 *1758:C *1758:A 2.93335e-05
32 *1758:C *411:30 8.53325e-05
33 *1759:C *411:30 0.000112958
34 *1760:C *411:17 5.56279e-05
35 *1761:C *1761:A 2.70366e-05
36 *395:6 *1981:A 4.64451e-05
37 *395:19 *400:99 0.000107212
38 *395:32 *400:99 2.05503e-05
39 *1750:B *395:19 5.00353e-05
40 *1750:B *395:32 4.88568e-06
41 *1751:B *1751:C 0.000173746
42 *1753:B *395:51 0.000191419
43 *1754:B *1754:C 5.56279e-05
44 *1756:B *1756:C 5.56279e-05
45 *1757:B *1757:C 1.08287e-05
46 *1758:B *1758:C 4.49877e-05
47 *1760:B *1760:C 6.01157e-05
48 *1761:B *1761:C 0.0001039
49 *1870:CLK *1757:C 7.86509e-06
50 *1872:CLK *1759:C 7.86509e-06
51 *177:17 *1751:C 5.56279e-05
52 *177:17 *395:32 0.000246214
53 *177:17 *395:58 0.000164467
54 *179:13 *1755:C 5.56356e-05
55 *184:17 *1758:C 5.56279e-05
56 *184:17 *395:115 6.16531e-05
57 *184:17 *395:128 0.000171719
58 *186:13 *1761:C 5.50106e-05
59 *294:14 *1751:C 1.56542e-05
60 *295:6 *395:51 0.000138607
61 *301:12 *1757:C 1.8788e-05
62 *302:10 *1758:C 0.000185364
63 *302:10 *1759:C 2.16575e-05
64 *303:12 *1759:C 1.8788e-05
65 *304:10 *1760:C 0
66 *359:6 *1754:C 5.56279e-05
67 *360:10 *1755:C 2.812e-05
68 *376:57 *395:51 4.41725e-05
69 *384:26 *1761:C 0.000102468
70 *384:26 *395:58 5.79413e-06
71 *384:26 *395:69 9.61027e-05
72 *384:26 *395:80 0.000144812
73 *384:26 *395:93 7.80354e-05
74 *384:26 *395:104 8.67875e-05
75 *384:26 *395:115 7.65883e-06
76 *384:26 *395:128 0.000204155
77 *384:34 *395:32 0.000229805
78 *384:34 *395:58 5.94125e-05
79 *385:25 *1761:C 6.01751e-05
80 *385:25 *395:104 1.23172e-05
81 *385:25 *395:115 8.4047e-05
82 *385:25 *395:128 0.000589549
83 *385:27 *395:104 3.69517e-05
84 *385:29 *395:104 0.000129504
85 *385:31 *395:80 0.000102629
86 *385:31 *395:93 0.000164282
87 *385:31 *395:104 1.01436e-05
88 *385:37 *395:69 1.01436e-05
89 *385:37 *395:80 0.000194318
90 *385:52 *395:69 4.38375e-05
91 *385:58 *395:58 5.596e-05
92 *385:58 *395:69 7.75736e-06
93 *385:77 *1752:C 5.3304e-05
94 *385:77 *395:51 3.43646e-05
*RES
1 *1981:X *395:6 25.0507 
2 *395:6 *1750:C 24.4707 
3 *395:6 *395:19 16.5536 
4 *395:19 *1751:C 41.5007 
5 *395:19 *395:32 3.66643 
6 *395:32 *395:34 15 
7 *395:34 *1752:C 23.6214 
8 *395:34 *395:51 35.1579 
9 *395:51 *1753:C 23 
10 *395:32 *395:58 2.61 
11 *395:58 *1755:C 40.0507 
12 *395:58 *395:69 2.96214 
13 *395:69 *1754:C 38.6214 
14 *395:69 *395:80 4.01857 
15 *395:80 *1757:C 40.9 
16 *395:80 *395:93 2.25786 
17 *395:93 *1756:C 38.6214 
18 *395:93 *395:104 2.61 
19 *395:104 *1758:C 41.0036 
20 *395:104 *395:115 1.20143 
21 *395:115 *1759:C 40.9 
22 *395:115 *395:128 7.89214 
23 *395:128 *1760:C 39.1186 
24 *395:128 *1761:C 43.0129 
*END

*D_NET *396 0.0236003
*CONN
*I *1773:C I *D sky130_fd_sc_hd__nor4b_1
*I *1772:C I *D sky130_fd_sc_hd__nor4b_1
*I *1788:C I *D sky130_fd_sc_hd__nor4b_1
*I *1791:C I *D sky130_fd_sc_hd__nor4b_1
*I *1790:C I *D sky130_fd_sc_hd__nor4b_1
*I *1789:C I *D sky130_fd_sc_hd__nor4b_1
*I *1774:C I *D sky130_fd_sc_hd__nor4b_1
*I *1777:C I *D sky130_fd_sc_hd__nor4b_1
*I *1775:C I *D sky130_fd_sc_hd__nor4b_1
*I *1770:C I *D sky130_fd_sc_hd__nor4b_1
*I *1771:C I *D sky130_fd_sc_hd__nor4b_1
*I *1769:C I *D sky130_fd_sc_hd__nor4b_1
*I *1768:C I *D sky130_fd_sc_hd__nor4b_1
*I *1767:C I *D sky130_fd_sc_hd__nor4b_1
*I *1766:C I *D sky130_fd_sc_hd__nor4b_1
*I *1765:C I *D sky130_fd_sc_hd__nor4b_1
*I *1982:X O *D sky130_fd_sc_hd__buf_4
*CAP
1 *1773:C 9.68559e-05
2 *1772:C 0.000107331
3 *1788:C 0.000207909
4 *1791:C 9.33159e-05
5 *1790:C 0.000168239
6 *1789:C 0
7 *1774:C 0
8 *1777:C 0.000156469
9 *1775:C 1.49546e-05
10 *1770:C 0.000141292
11 *1771:C 0
12 *1769:C 0.000157823
13 *1768:C 6.50949e-05
14 *1767:C 0.000164345
15 *1766:C 0.000205236
16 *1765:C 0
17 *1982:X 0
18 *396:215 0.000377608
19 *396:206 0.000249744
20 *396:202 0.000598962
21 *396:196 0.0014266
22 *396:188 0.00231689
23 *396:177 0.00134313
24 *396:158 0.000474064
25 *396:141 0.000298932
26 *396:133 0.000688364
27 *396:123 0.00051604
28 *396:121 0.000485606
29 *396:97 0.000287562
30 *396:85 0.000428854
31 *396:83 0.000640913
32 *396:68 0.000451227
33 *396:55 0.000327708
34 *396:40 0.000384745
35 *396:25 0.000368275
36 *396:16 0.000374547
37 *396:4 0.000441702
38 *1766:C *1766:A 2.71291e-05
39 *1766:C *412:67 7.45175e-05
40 *1768:C *1768:A 3.47821e-05
41 *1773:C *1773:A 4.67488e-05
42 *396:16 *400:126 2.11066e-05
43 *396:25 *438:DIODE 9.41704e-05
44 *396:40 *412:67 0.000107651
45 *396:55 *412:65 0.000104051
46 *396:55 *412:67 6.07611e-06
47 *396:68 *412:61 3.62323e-05
48 *396:68 *412:63 9.03157e-05
49 *396:68 *412:65 6.07611e-06
50 *396:83 *412:61 0.00015965
51 *396:121 *412:59 9.18909e-05
52 *396:121 *412:61 2.85696e-05
53 *396:133 *1773:A 6.17437e-06
54 *396:133 *416:120 0.00014128
55 *396:141 *1774:A 4.92689e-05
56 *396:141 *412:53 2.02872e-05
57 *396:141 *412:55 0.000164291
58 *396:158 *412:53 8.48502e-06
59 *396:196 *1784:C 0.000222668
60 *396:196 *400:158 0.000377911
61 *1766:B *1766:C 0.000143543
62 *1767:B *1767:C 4.39619e-05
63 *1769:B *1769:C 0.000139982
64 *1770:B *1770:C 2.87244e-05
65 *1772:B *1772:C 8.49716e-05
66 *1772:B *396:133 0.000136743
67 *1774:B *396:177 3.10005e-05
68 *1788:B *1788:C 0.000220321
69 *1788:B *396:202 9.67842e-05
70 *1790:B *1790:C 0.000181801
71 *1791:B *1791:C 4.78741e-05
72 *1791:B *396:215 1.6891e-05
73 *1884:CLK *1769:C 1.11037e-05
74 *1890:CLK *1772:C 1.11037e-05
75 *1892:CLK *396:188 2.93335e-05
76 *1893:CLK *396:188 2.70469e-05
77 *1900:CLK *396:196 9.64943e-05
78 *1900:D *396:196 3.16761e-05
79 *1952:A *396:141 3.47781e-05
80 *191:17 *396:16 2.26406e-05
81 *193:13 *1767:C 2.93845e-05
82 *197:17 *1770:C 2.93845e-05
83 *197:17 *396:97 0.000257577
84 *199:15 *396:121 4.75766e-05
85 *200:13 *396:133 5.56356e-05
86 *201:17 *1777:C 5.3304e-05
87 *201:17 *396:133 3.48578e-05
88 *201:17 *396:158 0.000111129
89 *201:17 *396:177 0.000136743
90 *212:13 *396:196 0.000100236
91 *217:13 *396:202 0.00011906
92 *237:8 *1766:C 0.000189208
93 *237:14 *1766:C 0.000260707
94 *237:14 *396:16 0.000159938
95 *237:14 *396:40 0.000208818
96 *237:14 *396:55 0.0002129
97 *237:14 *396:68 0.000262178
98 *237:14 *396:83 0.000312367
99 *237:14 *396:121 0.000299767
100 *237:14 *396:158 0.000110373
101 *237:16 *1791:C 0.000169683
102 *237:16 *396:206 0.000274543
103 *237:16 *396:215 0.000271382
104 *309:18 *1766:C 1.08287e-05
105 *317:12 *1770:C 1.08287e-05
106 *320:10 *396:188 9.31945e-05
107 *323:10 *396:188 0.000323812
108 *324:10 *1777:C 2.65505e-05
109 *325:10 *396:188 0.000326973
110 *361:18 *396:121 6.70361e-05
111 *362:6 *396:141 5.3304e-05
112 *362:14 *396:141 0.000192087
113 *366:10 *396:188 5.0896e-05
114 *366:23 *396:188 0.000263629
115 *366:36 *396:188 8.16459e-05
116 *366:45 *396:188 0.000140661
117 *366:58 *396:188 1.58805e-05
118 *386:16 *396:97 6.28499e-05
119 *386:43 *396:16 1.52799e-05
120 *386:88 *396:97 1.31414e-05
121 *386:107 *396:121 0.000319846
122 *386:107 *396:133 5.44889e-06
123 *386:116 *396:133 5.04384e-05
124 *386:144 *1775:C 3.91386e-05
125 *386:144 *396:158 1.3523e-05
126 *386:148 *1777:C 6.01621e-05
127 *386:170 *396:196 0
128 *386:170 *396:206 1.46784e-05
129 *386:183 *396:206 8.87374e-05
130 *386:198 *396:206 2.94915e-05
131 *386:198 *396:215 0.00010704
*RES
1 *1982:X *396:4 23 
2 *396:4 *396:16 35.3029 
3 *396:16 *1765:C 23 
4 *396:4 *396:25 16.0979 
5 *396:25 *1766:C 44.2143 
6 *396:25 *396:40 2.96214 
7 *396:40 *1767:C 41.045 
8 *396:40 *396:55 2.96214 
9 *396:55 *1768:C 39.1186 
10 *396:55 *396:68 3.66643 
11 *396:68 *1769:C 41.045 
12 *396:68 *396:83 4.37071 
13 *396:83 *396:85 15 
14 *396:85 *396:97 34.5105 
15 *396:97 *1771:C 23 
16 *396:85 *1770:C 25.5479 
17 *396:83 *396:121 40.3157 
18 *396:121 *396:123 15 
19 *396:123 *396:133 38.12 
20 *396:133 *396:141 34.06 
21 *396:141 *1775:C 23.4971 
22 *396:141 *396:158 32.6721 
23 *396:158 *1777:C 26.335 
24 *396:158 *396:177 3.50071 
25 *396:177 *1774:C 23 
26 *396:177 *396:188 42.2186 
27 *396:188 *396:196 49.2021 
28 *396:196 *396:202 18.9771 
29 *396:202 *396:206 18.6664 
30 *396:206 *1789:C 38 
31 *396:206 *396:215 3.66643 
32 *396:215 *1790:C 41.0243 
33 *396:215 *1791:C 40.2579 
34 *396:202 *1788:C 26.3764 
35 *396:133 *1772:C 25.0714 
36 *396:123 *1773:C 24.595 
*END

*D_NET *397 0.00888323
*CONN
*I *1776:C I *D sky130_fd_sc_hd__nor4b_1
*I *1787:C I *D sky130_fd_sc_hd__nor4b_1
*I *1786:C I *D sky130_fd_sc_hd__nor4b_1
*I *1785:C I *D sky130_fd_sc_hd__nor4b_1
*I *1784:C I *D sky130_fd_sc_hd__nor4b_1
*I *1783:C I *D sky130_fd_sc_hd__nor4b_1
*I *1782:C I *D sky130_fd_sc_hd__nor4b_1
*I *1781:C I *D sky130_fd_sc_hd__nor4b_1
*I *1778:C I *D sky130_fd_sc_hd__nor4b_1
*I *1779:C I *D sky130_fd_sc_hd__nor4b_1
*I *1780:C I *D sky130_fd_sc_hd__nor4b_1
*I *1983:X O *D sky130_fd_sc_hd__buf_2
*CAP
1 *1776:C 0
2 *1787:C 5.0044e-05
3 *1786:C 0.00016225
4 *1785:C 0
5 *1784:C 0.000139693
6 *1783:C 0
7 *1782:C 0.000234847
8 *1781:C 0
9 *1778:C 0.000205704
10 *1779:C 2.54186e-05
11 *1780:C 0
12 *1983:X 0
13 *397:124 0.000175075
14 *397:100 0.000304767
15 *397:91 0.000184202
16 *397:76 0.00033009
17 *397:67 0.000165329
18 *397:52 0.000429732
19 *397:43 0.000171438
20 *397:30 0.000383197
21 *397:14 0.000248808
22 *397:6 0.000605253
23 *397:4 0.000371821
24 *1779:C *413:41 1.37232e-05
25 *397:6 *400:231 1.59094e-05
26 *397:6 *413:41 4.63801e-05
27 *397:14 *1779:A 1.5769e-05
28 *397:14 *413:41 5.37348e-06
29 *397:124 *400:231 0.000188164
30 *397:124 *413:41 1.68817e-05
31 *1778:B *1778:C 0.000219368
32 *1782:B *1782:C 6.63479e-05
33 *1784:B *1784:C 2.68258e-05
34 *1786:B *1786:C 4.34559e-05
35 *1787:B *1787:C 0.000188256
36 *1787:B *397:100 8.85189e-05
37 *1896:CLK *1778:C 1.11037e-05
38 *1900:CLK *1784:C 1.11037e-05
39 *206:17 *397:30 5.93746e-05
40 *212:13 *1784:C 4.67488e-05
41 *215:13 *1786:C 9.41704e-05
42 *237:16 *1787:C 0.000197479
43 *237:16 *397:30 0.00021039
44 *237:16 *397:43 0.000141879
45 *237:16 *397:52 0.000244636
46 *237:16 *397:67 0.000193379
47 *237:16 *397:76 0.000244283
48 *237:16 *397:91 0.000189679
49 *237:16 *397:100 0.000239411
50 *237:16 *397:124 0
51 *326:6 *397:6 6.57815e-06
52 *327:10 *1778:C 1.08287e-05
53 *367:62 *397:124 0
54 *386:170 *397:14 6.15872e-05
55 *386:170 *397:30 2.32052e-05
56 *387:10 *1779:C 3.91386e-05
57 *387:10 *397:14 0.0001835
58 *387:38 *397:14 0.000138719
59 *387:53 *1778:C 0
60 *387:53 *397:30 1.14452e-05
61 *387:53 *397:43 0.000132665
62 *387:62 *397:43 1.14452e-05
63 *387:62 *397:52 0.000236342
64 *387:77 *397:52 1.14452e-05
65 *387:77 *397:67 0.000181934
66 *387:86 *397:67 1.14452e-05
67 *387:86 *397:76 0.000182873
68 *387:99 *397:76 6.01083e-05
69 *387:99 *397:91 0.000182269
70 *387:108 *397:91 1.14452e-05
71 *387:108 *397:100 0.000157309
72 *396:196 *1784:C 0.000222668
*RES
1 *1983:X *397:4 23 
2 *397:4 *397:6 2.52714 
3 *397:6 *397:14 34.4329 
4 *397:14 *1780:C 23 
5 *397:6 *1779:C 23.8493 
6 *397:6 *397:30 17.9621 
7 *397:30 *1778:C 41.3764 
8 *397:30 *397:43 1.90571 
9 *397:43 *1781:C 38 
10 *397:43 *397:52 3.31429 
11 *397:52 *1782:C 41.8736 
12 *397:52 *397:67 2.61 
13 *397:67 *1783:C 38 
14 *397:67 *397:76 3.31429 
15 *397:76 *1784:C 41.5214 
16 *397:76 *397:91 2.61 
17 *397:91 *1785:C 38 
18 *397:91 *397:100 3.31429 
19 *397:100 *1786:C 40.5271 
20 *397:100 *1787:C 40.61 
21 *397:4 *397:124 33.6664 
22 *397:124 *1776:C 23 
*END

*D_NET *398 0.0219117
*CONN
*I *1792:C I *D sky130_fd_sc_hd__nor4b_1
*I *1793:C I *D sky130_fd_sc_hd__nor4b_1
*I *1794:C I *D sky130_fd_sc_hd__nor4b_1
*I *1802:C I *D sky130_fd_sc_hd__nor4b_1
*I *1804:C I *D sky130_fd_sc_hd__nor4b_1
*I *1818:C I *D sky130_fd_sc_hd__nor4b_1
*I *1820:C I *D sky130_fd_sc_hd__nor4b_1
*I *1819:C I *D sky130_fd_sc_hd__nor4b_1
*I *1803:C I *D sky130_fd_sc_hd__nor4b_1
*I *1801:C I *D sky130_fd_sc_hd__nor4b_1
*I *1800:C I *D sky130_fd_sc_hd__nor4b_1
*I *1797:C I *D sky130_fd_sc_hd__nor4b_1
*I *1799:C I *D sky130_fd_sc_hd__nor4b_1
*I *1798:C I *D sky130_fd_sc_hd__nor4b_1
*I *1796:C I *D sky130_fd_sc_hd__nor4b_1
*I *1795:C I *D sky130_fd_sc_hd__nor4b_1
*I *1984:X O *D sky130_fd_sc_hd__buf_4
*CAP
1 *1792:C 0
2 *1793:C 0
3 *1794:C 0.000178338
4 *1802:C 0
5 *1804:C 0
6 *1818:C 0
7 *1820:C 0
8 *1819:C 0.000520919
9 *1803:C 0.000156338
10 *1801:C 0.000177935
11 *1800:C 0
12 *1797:C 0
13 *1799:C 0
14 *1798:C 4.56183e-05
15 *1796:C 0.00023462
16 *1795:C 9.40406e-05
17 *1984:X 5.11681e-05
18 *398:241 0.000114345
19 *398:201 0.00027269
20 *398:191 0.000946535
21 *398:168 0.0019066
22 *398:166 0.00155073
23 *398:154 0.000931155
24 *398:141 0.000361943
25 *398:137 0.000294546
26 *398:118 0.000752576
27 *398:101 0.000681098
28 *398:88 0.000373826
29 *398:73 0.000373826
30 *398:71 0.000455576
31 *398:56 0.000372802
32 *398:41 0.00057709
33 *398:24 0.000498866
34 *398:16 0.000498619
35 *398:10 0.000287103
36 *398:6 0.000353965
37 *1795:C *1795:A 4.96717e-05
38 *1798:C *414:17 0.00018536
39 *1803:C *1803:A 2.02872e-05
40 *1819:C *1819:A 8.2289e-05
41 *398:10 *1793:A 2.98648e-05
42 *398:41 *400:194 7.60871e-06
43 *398:56 *400:194 0.000387035
44 *398:71 *400:194 0.000123831
45 *398:101 *1800:A 2.02872e-05
46 *398:101 *400:194 7.4059e-05
47 *398:166 *1804:A 1.41077e-05
48 *398:166 *414:138 1.60583e-05
49 *398:166 *414:144 0.000397012
50 *398:166 *416:31 0.000259164
51 *398:168 *414:144 0.000614778
52 *398:191 *414:144 6.48142e-05
53 *398:191 *414:165 0.000603725
54 *398:241 *1792:A 2.29977e-05
55 *398:241 *400:179 0.000110184
56 *1792:B *398:16 1.14452e-05
57 *1794:B *1794:C 2.87244e-05
58 *1796:B *1796:C 2.87244e-05
59 *1798:B *1798:C 0.00018536
60 *1799:B *398:88 4.05745e-05
61 *1800:B *398:101 2.58635e-05
62 *1800:B *398:118 4.97706e-05
63 *1801:B *1801:C 7.44236e-05
64 *1802:B *398:137 0.000135037
65 *1804:B *398:166 5.50049e-05
66 *1819:B *1819:C 0.000131104
67 *1820:B *398:201 0.000394835
68 *1935:CLK *398:201 0
69 *136:13 *398:191 0.000319375
70 *223:13 *1794:C 4.34973e-05
71 *223:13 *398:24 4.96207e-05
72 *226:13 *1796:C 6.99589e-05
73 *230:13 *398:101 9.41704e-05
74 *234:13 *1803:C 9.41704e-05
75 *235:19 *398:166 0.000144501
76 *237:16 *398:16 0.000243596
77 *237:16 *398:56 1.12487e-05
78 *237:16 *398:71 0.000220356
79 *237:16 *398:101 0.000166522
80 *237:16 *398:141 0.00021356
81 *237:16 *398:154 0.000216721
82 *237:16 *398:201 0.000169665
83 *341:6 *398:6 5.40337e-05
84 *341:6 *398:10 6.99492e-05
85 *348:6 *398:88 0.000138607
86 *352:6 *398:137 2.64616e-05
87 *363:16 *398:141 9.90641e-05
88 *363:16 *398:154 9.67134e-05
89 *388:8 *398:10 6.68617e-05
90 *388:27 *398:16 0.000166522
91 *388:40 *398:16 8.72173e-05
92 *388:40 *398:24 0.000163858
93 *388:40 *398:41 3.64337e-05
94 *388:53 *398:41 0.000167996
95 *388:68 *398:41 5.11845e-05
96 *388:68 *398:56 0.000378203
97 *388:89 *398:88 0.000122622
98 *388:102 *398:88 2.50756e-05
99 *388:102 *398:118 3.18803e-05
100 *388:119 *398:118 0.000354934
101 *388:134 *398:118 3.70187e-05
102 *388:134 *398:137 0.000155077
103 *388:185 *398:166 1.24376e-05
104 *388:218 *398:201 1.14452e-05
105 *390:208 *398:166 0.000194318
*RES
1 *1984:X *398:6 24.0979 
2 *398:6 *398:10 3.37643 
3 *398:10 *398:16 33.3143 
4 *398:16 *398:24 18.8529 
5 *398:24 *1795:C 39.595 
6 *398:24 *398:41 4.43286 
7 *398:41 *1796:C 41.9979 
8 *398:41 *398:56 5.42714 
9 *398:56 *1798:C 40.0507 
10 *398:56 *398:71 4.08071 
11 *398:71 *398:73 15 
12 *398:73 *1799:C 23 
13 *398:73 *398:88 36.3386 
14 *398:88 *1797:C 23 
15 *398:71 *398:101 20.6343 
16 *398:101 *1800:C 23 
17 *398:101 *398:118 23.0164 
18 *398:118 *1801:C 41.3971 
19 *398:118 *398:137 18.8321 
20 *398:137 *398:141 17.9621 
21 *398:141 *1803:C 40.5271 
22 *398:141 *398:154 17.9621 
23 *398:154 *398:166 33.6325 
24 *398:166 *398:168 16.9339 
25 *398:168 *1819:C 45.3329 
26 *398:168 *398:191 29.5 
27 *398:191 *398:201 35.6343 
28 *398:201 *1820:C 23 
29 *398:191 *1818:C 23 
30 *398:154 *1804:C 23 
31 *398:137 *1802:C 23 
32 *398:16 *1794:C 26.0243 
33 *398:10 *1793:C 23 
34 *398:6 *398:241 32.2579 
35 *398:241 *1792:C 23 
*END

*D_NET *399 0.0119792
*CONN
*I *1805:C I *D sky130_fd_sc_hd__nor4b_1
*I *1809:C I *D sky130_fd_sc_hd__nor4b_1
*I *1812:C I *D sky130_fd_sc_hd__nor4b_1
*I *1811:C I *D sky130_fd_sc_hd__nor4b_1
*I *1816:C I *D sky130_fd_sc_hd__nor4b_1
*I *1817:C I *D sky130_fd_sc_hd__nor4b_1
*I *1815:C I *D sky130_fd_sc_hd__nor4b_1
*I *1814:C I *D sky130_fd_sc_hd__nor4b_1
*I *1813:C I *D sky130_fd_sc_hd__nor4b_1
*I *1810:C I *D sky130_fd_sc_hd__nor4b_1
*I *1808:C I *D sky130_fd_sc_hd__nor4b_1
*I *1807:C I *D sky130_fd_sc_hd__nor4b_1
*I *1806:C I *D sky130_fd_sc_hd__nor4b_1
*I *1985:X O *D sky130_fd_sc_hd__clkbuf_4
*CAP
1 *1805:C 0
2 *1809:C 0
3 *1812:C 0
4 *1811:C 7.85348e-05
5 *1816:C 0.000159631
6 *1817:C 3.76498e-05
7 *1815:C 0
8 *1814:C 6.3299e-05
9 *1813:C 5.97043e-05
10 *1810:C 0
11 *1808:C 0.000106633
12 *1807:C 0.000115962
13 *1806:C 0.000149687
14 *1985:X 0
15 *399:186 0.000189573
16 *399:141 0.000436646
17 *399:126 0.00070133
18 *399:107 0.00066046
19 *399:103 0.000355064
20 *399:92 0.000535642
21 *399:82 0.000656611
22 *399:74 0.000829056
23 *399:55 0.00096109
24 *399:36 0.000777657
25 *399:23 0.000400348
26 *399:6 0.000297964
27 *399:4 0.000270448
28 *1806:C *1985:A 6.1789e-05
29 *1807:C *416:52 9.90123e-06
30 *1816:C *1816:A 0.00013509
31 *1817:C *1816:A 4.08664e-05
32 *1817:C *1817:A 5.56279e-05
33 *399:23 *414:138 8.62783e-05
34 *399:36 *416:52 2.86209e-05
35 *399:74 *414:144 0
36 *399:74 *415:61 0.000137441
37 *399:82 *1809:A 8.2041e-05
38 *399:92 *414:144 8.22516e-05
39 *399:92 *415:61 2.72882e-05
40 *399:92 *415:70 5.92365e-05
41 *399:92 *415:107 3.09219e-05
42 *399:141 *1815:A 5.56279e-05
43 *399:141 *415:134 0.00016401
44 *399:186 *414:138 7.7771e-05
45 *1806:B *1806:C 2.02517e-05
46 *1807:B *1807:C 9.41553e-05
47 *1809:B *399:74 7.08396e-05
48 *1811:B *1811:C 2.68258e-05
49 *1811:B *399:103 3.65917e-05
50 *1813:B *1813:C 2.93335e-05
51 *1813:B *399:103 6.52749e-05
52 *1815:B *399:126 1.24376e-05
53 *1815:B *399:141 2.31875e-05
54 *1816:B *1816:C 0.000254825
55 *1817:B *1816:C 0.000146141
56 *1817:B *1817:C 4.34464e-05
57 *1928:CLK *399:74 1.11037e-05
58 *1930:D *1811:C 0.000144501
59 *1930:D *399:103 0.00021677
60 *126:15 *399:55 0.000195318
61 *126:15 *399:82 4.21594e-06
62 *127:13 *399:74 7.51453e-06
63 *129:13 *399:92 5.56356e-05
64 *134:15 *399:126 7.57281e-06
65 *137:17 *399:141 0.000158796
66 *137:31 *1814:C 9.41704e-05
67 *237:16 *399:36 0.000135709
68 *237:16 *399:55 7.32852e-07
69 *237:16 *399:82 0
70 *237:16 *399:107 0.000192077
71 *237:16 *399:126 0.000260319
72 *242:10 *1806:C 2.93431e-05
73 *242:10 *399:6 2.93985e-05
74 *244:6 *1808:C 2.93747e-05
75 *245:10 *399:55 0.000163858
76 *245:10 *399:74 9.96055e-05
77 *246:6 *399:55 4.67488e-05
78 *248:6 *399:82 0.000138607
79 *249:8 *399:92 3.64246e-05
80 *250:10 *1814:C 3.7122e-06
81 *252:6 *399:126 9.94357e-05
82 *254:12 *1816:C 1.71761e-05
83 *370:12 *399:55 0
84 *370:14 *399:36 0
85 *370:16 *399:186 0
86 *370:64 *399:107 0
87 *370:75 *399:126 0
88 *389:87 *1811:C 0
*RES
1 *1985:X *399:4 23 
2 *399:4 *399:6 1.09786 
3 *399:6 *1806:C 26.0657 
4 *399:6 *399:23 16.2014 
5 *399:23 *1807:C 39.9471 
6 *399:23 *399:36 4.01857 
7 *399:36 *1808:C 39.5743 
8 *399:36 *399:55 23.5964 
9 *399:55 *1810:C 23 
10 *399:55 *399:74 38.4307 
11 *399:74 *399:82 35.4893 
12 *399:82 *399:92 36.5664 
13 *399:92 *1813:C 24.1186 
14 *399:92 *399:103 3.00357 
15 *399:103 *399:107 17.61 
16 *399:107 *1814:C 39.0979 
17 *399:107 *399:126 23.7207 
18 *399:126 *1815:C 23 
19 *399:126 *399:141 34.6814 
20 *399:141 *1817:C 24.0979 
21 *399:141 *1816:C 28.0957 
22 *399:103 *1811:C 25.0714 
23 *399:82 *1812:C 23 
24 *399:74 *1809:C 23 
25 *399:4 *399:186 33.6664 
26 *399:186 *1805:C 23 
*END

*D_NET *400 0.0477485
*CONN
*I *1983:A I *D sky130_fd_sc_hd__buf_2
*I *439:DIODE I *D sky130_fd_sc_hd__diode_2
*I *1985:A I *D sky130_fd_sc_hd__clkbuf_4
*I *441:DIODE I *D sky130_fd_sc_hd__diode_2
*I *1984:A I *D sky130_fd_sc_hd__buf_4
*I *440:DIODE I *D sky130_fd_sc_hd__diode_2
*I *438:DIODE I *D sky130_fd_sc_hd__diode_2
*I *1982:A I *D sky130_fd_sc_hd__buf_4
*I *437:DIODE I *D sky130_fd_sc_hd__diode_2
*I *1981:A I *D sky130_fd_sc_hd__clkbuf_4
*I *433:DIODE I *D sky130_fd_sc_hd__diode_2
*I *436:DIODE I *D sky130_fd_sc_hd__diode_2
*I *1977:A I *D sky130_fd_sc_hd__buf_4
*I *1980:A I *D sky130_fd_sc_hd__buf_4
*I *1979:A I *D sky130_fd_sc_hd__clkbuf_4
*I *435:DIODE I *D sky130_fd_sc_hd__diode_2
*I *1986:X O *D sky130_fd_sc_hd__clkbuf_4
*CAP
1 *1983:A 0
2 *439:DIODE 0
3 *1985:A 0.000695674
4 *441:DIODE 0
5 *1984:A 0
6 *440:DIODE 0
7 *438:DIODE 0.000244539
8 *1982:A 7.46478e-05
9 *437:DIODE 0.00039612
10 *1981:A 0.000118279
11 *433:DIODE 0.000188629
12 *436:DIODE 0
13 *1977:A 0
14 *1980:A 1.00124e-05
15 *1979:A 0
16 *435:DIODE 0.000155536
17 *1986:X 0
18 *400:231 0.000382498
19 *400:200 0.00144188
20 *400:194 0.00246569
21 *400:179 0.000240327
22 *400:166 0.000480436
23 *400:162 0.00263648
24 *400:158 0.00191528
25 *400:152 0.00492925
26 *400:126 0.000451766
27 *400:116 0.00650155
28 *400:99 0.00371941
29 *400:82 0.00166046
30 *400:69 0.00159607
31 *400:48 2.99373e-05
32 *400:26 0.000448692
33 *400:24 0.000502963
34 *400:20 0.000491696
35 *400:4 0.000429757
36 *433:DIODE *1737:A 0.000113422
37 *437:DIODE *1750:A 2.23884e-05
38 *437:DIODE *403:29 0
39 *437:DIODE *411:61 8.02143e-06
40 *400:26 *416:163 0
41 *400:82 *1737:A 8.57382e-05
42 *400:82 *403:50 5.51325e-05
43 *400:82 *403:52 6.71018e-05
44 *400:82 *403:54 1.27263e-05
45 *400:82 *403:70 0.000204346
46 *400:82 *403:72 0.000178317
47 *400:82 *416:159 0.000132994
48 *400:82 *416:163 3.26609e-05
49 *400:116 *416:159 0.00201733
50 *400:158 *412:39 0.000932287
51 *400:158 *413:60 3.7122e-06
52 *400:158 *416:120 0.000222474
53 *400:179 *1792:A 0.000136609
54 *400:194 *455:DIODE 8.50457e-05
55 *400:194 *414:87 8.49627e-05
56 *400:194 *414:93 1.00084e-05
57 *400:194 *416:10 0.000136281
58 *400:194 *416:31 0
59 *400:231 *413:60 4.27352e-05
60 *1737:B *400:20 4.07928e-05
61 *1737:B *400:24 0
62 *1737:B *400:82 1.11421e-05
63 *1738:B *400:20 3.23857e-06
64 *1738:B *400:82 1.27321e-05
65 *1750:B *400:82 4.21594e-06
66 *1750:B *400:99 1.62615e-05
67 *1750:C *1981:A 1.14154e-05
68 *1792:B *400:166 1.24376e-05
69 *1792:B *400:179 0.000211891
70 *1806:C *1985:A 6.1789e-05
71 *123:13 *1985:A 0.000113589
72 *155:13 *435:DIODE 3.71251e-05
73 *158:15 *1980:A 3.22879e-05
74 *158:15 *400:48 2.18409e-05
75 *160:19 *400:20 0.000148097
76 *160:19 *400:69 2.43944e-05
77 *161:15 *400:20 0.000144501
78 *161:15 *400:24 4.6318e-06
79 *162:17 *400:82 2.11157e-05
80 *164:17 *400:82 8.48183e-05
81 *172:17 *400:82 0.000594088
82 *173:17 *400:82 2.31765e-05
83 *204:15 *400:231 3.3123e-05
84 *230:13 *400:194 0.000123824
85 *237:14 *400:152 0.000135375
86 *237:16 *400:152 2.05503e-05
87 *237:16 *400:162 0
88 *237:16 *400:194 2.0385e-05
89 *237:16 *400:231 6.53609e-05
90 *242:10 *1985:A 0.000274237
91 *277:6 *433:DIODE 3.24862e-05
92 *293:6 *1981:A 0.000274234
93 *326:6 *400:231 0.000140935
94 *384:34 *400:82 0.000607733
95 *384:34 *400:99 0.000176135
96 *384:36 *400:82 0.000100778
97 *384:38 *400:82 0.000130424
98 *384:40 *400:82 0.000181943
99 *384:42 *400:82 0.000233453
100 *384:44 *400:82 0.000155077
101 *384:46 *400:82 0.000262169
102 *384:48 *400:82 0.000154147
103 *384:50 *400:82 0.000259017
104 *384:56 *400:82 0.000165593
105 *384:66 *400:82 0.000217698
106 *384:68 *400:82 4.82422e-05
107 *386:162 *400:158 0.000220885
108 *386:170 *400:158 0
109 *386:183 *400:158 0
110 *387:22 *400:158 9.87385e-06
111 *387:22 *400:231 9.03364e-06
112 *389:6 *1985:A 6.06809e-06
113 *390:149 *400:158 5.30518e-05
114 *390:169 *400:158 0.000987296
115 *390:169 *400:162 0
116 *390:169 *400:194 0
117 *390:180 *400:194 0
118 *390:191 *400:194 0
119 *390:191 *400:200 0.00133721
120 *390:195 *1985:A 9.5877e-05
121 *390:208 *1985:A 8.264e-05
122 *391:8 *400:26 6.32688e-05
123 *391:10 *435:DIODE 5.56203e-05
124 *391:10 *400:26 0.00014738
125 *394:10 *1980:A 3.22879e-05
126 *394:10 *400:48 2.93747e-05
127 *394:29 *433:DIODE 8.62783e-05
128 *394:29 *400:69 5.3304e-05
129 *394:29 *400:82 2.46345e-05
130 *394:57 *400:82 1.84329e-05
131 *394:68 *400:82 0.000160723
132 *394:81 *400:82 0.000269151
133 *394:94 *400:82 0.000191505
134 *395:6 *1981:A 4.64451e-05
135 *395:19 *400:99 0.000107212
136 *395:32 *400:99 2.05503e-05
137 *396:16 *400:126 2.11066e-05
138 *396:25 *438:DIODE 9.41704e-05
139 *396:196 *400:158 0.000377911
140 *397:6 *400:231 1.59094e-05
141 *397:124 *400:231 0.000188164
142 *398:41 *400:194 7.60871e-06
143 *398:56 *400:194 0.000387035
144 *398:71 *400:194 0.000123831
145 *398:101 *400:194 7.4059e-05
146 *398:241 *400:179 0.000110184
*RES
1 *1986:X *400:4 23 
2 *400:4 *400:20 36.4421 
3 *400:20 *400:24 18.3143 
4 *400:24 *400:26 6.13143 
5 *400:26 *435:DIODE 40.6514 
6 *400:26 *1979:A 38 
7 *400:24 *400:48 15.6214 
8 *400:48 *1980:A 23.6214 
9 *400:48 *1977:A 23 
10 *400:20 *436:DIODE 23 
11 *400:4 *400:69 16.5743 
12 *400:69 *433:DIODE 41.2521 
13 *400:69 *400:82 37.8243 
14 *400:82 *1981:A 41.5007 
15 *400:82 *400:99 10.7046 
16 *400:99 *437:DIODE 48.172 
17 *400:99 *400:116 15.672 
18 *400:116 *400:126 31.5059 
19 *400:126 *1982:A 24.0979 
20 *400:126 *438:DIODE 26.9564 
21 *400:116 *400:152 37.9496 
22 *400:152 *400:158 49.6861 
23 *400:158 *400:162 12.3354 
24 *400:162 *400:166 18.0036 
25 *400:166 *440:DIODE 23 
26 *400:166 *400:179 34.4329 
27 *400:179 *1984:A 23 
28 *400:162 *400:194 45.2636 
29 *400:194 *400:200 48.1043 
30 *400:200 *441:DIODE 23 
31 *400:200 *1985:A 33.3157 
32 *400:152 *439:DIODE 23 
33 *400:152 *400:231 37.2914 
34 *400:231 *1983:A 23 
*END

*D_NET *401 0.0116145
*CONN
*I *1850:RESET_B I *D sky130_fd_sc_hd__dfrtp_4
*I *1836:RESET_B I *D sky130_fd_sc_hd__dfrtp_4
*I *1835:RESET_B I *D sky130_fd_sc_hd__dfrtp_4
*I *1834:RESET_B I *D sky130_fd_sc_hd__dfrtp_4
*I *1833:RESET_B I *D sky130_fd_sc_hd__dfrtp_4
*I *1832:RESET_B I *D sky130_fd_sc_hd__dfrtp_4
*I *1831:RESET_B I *D sky130_fd_sc_hd__dfrtp_4
*I *1830:RESET_B I *D sky130_fd_sc_hd__dfrtp_4
*I *1829:RESET_B I *D sky130_fd_sc_hd__dfrtp_4
*I *1828:RESET_B I *D sky130_fd_sc_hd__dfrtp_4
*I *1827:RESET_B I *D sky130_fd_sc_hd__dfrtp_4
*I *1826:RESET_B I *D sky130_fd_sc_hd__dfrtp_4
*I *1825:RESET_B I *D sky130_fd_sc_hd__dfrtp_4
*I *1824:RESET_B I *D sky130_fd_sc_hd__dfrtp_4
*I *1822:RESET_B I *D sky130_fd_sc_hd__dfrtp_4
*I *1823:RESET_B I *D sky130_fd_sc_hd__dfrtp_4
*I *1987:X O *D sky130_fd_sc_hd__clkbuf_8
*CAP
1 *1850:RESET_B 0
2 *1836:RESET_B 6.25089e-05
3 *1835:RESET_B 0
4 *1834:RESET_B 0
5 *1833:RESET_B 0
6 *1832:RESET_B 0
7 *1831:RESET_B 3.84494e-05
8 *1830:RESET_B 6.25089e-05
9 *1829:RESET_B 0.000162927
10 *1828:RESET_B 0
11 *1827:RESET_B 0
12 *1826:RESET_B 0.00041991
13 *1825:RESET_B 0.000127352
14 *1824:RESET_B 6.25089e-05
15 *1822:RESET_B 0.000163563
16 *1823:RESET_B 0.000218987
17 *1987:X 0.000218987
18 *401:166 0.00196014
19 *401:150 0.00225143
20 *401:139 0.000347875
21 *401:132 0.00029671
22 *401:125 0.000297103
23 *401:118 0.000313237
24 *401:104 0.000407979
25 *401:92 0.000481419
26 *401:76 0.000518781
27 *401:69 0.000293514
28 *401:62 0.000314483
29 *401:38 0.000559633
30 *401:26 0.000399302
31 *401:10 0.000354296
32 *401:166 *1845:RESET_B 0.000169683
33 *401:166 *1848:RESET_B 0.000283088
34 *401:166 *1849:RESET_B 0.000109447
35 *401:166 *402:18 0
36 *401:166 *402:30 0
37 *401:166 *402:40 0
38 *401:166 *402:52 0
39 *401:166 *402:62 0
40 *401:166 *402:74 0
41 *401:166 *402:90 0
42 *401:166 *402:98 0.000441326
43 *401:166 *402:105 0.000171906
44 mstream_o[25] *401:166 0
45 *1833:D *401:104 0
46 *1833:D *401:118 0
47 *1833:D *401:125 0
48 *23:10 *401:139 0
49 *23:10 *401:150 0
50 *31:8 *1823:RESET_B 0.00010018
51 *34:10 *401:166 0
52 *39:10 *401:166 0
53 *42:10 *1826:RESET_B 0
54 *42:10 *401:38 0
55 *264:12 *401:166 0
56 *357:10 *401:125 0
57 *357:10 *401:132 0
58 *357:10 *401:139 0
59 *357:10 *401:150 0
60 *357:20 *1826:RESET_B 5.26733e-06
61 *357:20 *401:62 0
62 *357:20 *401:69 0
63 *357:20 *401:76 0
64 *357:20 *401:92 0
65 *357:20 *401:104 0
66 *357:20 *401:118 0
67 *357:20 *401:125 0
68 *390:37 *401:166 0
69 *390:43 *401:166 0
*RES
1 *1987:X *1823:RESET_B 27.3604 
2 *1823:RESET_B *401:10 15 
3 *401:10 *1822:RESET_B 17.8068 
4 *401:10 *401:26 3.72857 
5 *401:26 *1824:RESET_B 16.0461 
6 *401:26 *401:38 2.25786 
7 *401:38 *1825:RESET_B 16.8746 
8 *401:38 *1826:RESET_B 19.7125 
9 *1826:RESET_B *401:62 17.2579 
10 *401:62 *1827:RESET_B 15 
11 *401:62 *401:69 3.66643 
12 *401:69 *1828:RESET_B 15 
13 *401:69 *401:76 1.90571 
14 *401:76 *1829:RESET_B 17.3511 
15 *401:76 *401:92 4.43286 
16 *401:92 *1830:RESET_B 16.0461 
17 *401:92 *401:104 2.96214 
18 *401:104 *1831:RESET_B 15.5489 
19 *401:104 *401:118 4.08071 
20 *401:118 *1832:RESET_B 15 
21 *401:118 *401:125 2.25786 
22 *401:125 *1833:RESET_B 15 
23 *401:125 *401:132 3.66643 
24 *401:132 *1834:RESET_B 15 
25 *401:132 *401:139 2.25786 
26 *401:139 *1835:RESET_B 15 
27 *401:139 *401:150 4.08071 
28 *401:150 *1836:RESET_B 16.0461 
29 *401:150 *401:166 40.7036 
30 *401:166 *1850:RESET_B 15 
*END

*D_NET *402 0.00850386
*CONN
*I *1845:RESET_B I *D sky130_fd_sc_hd__dfrtp_4
*I *1849:RESET_B I *D sky130_fd_sc_hd__dfrtp_4
*I *1848:RESET_B I *D sky130_fd_sc_hd__dfrtp_4
*I *1847:RESET_B I *D sky130_fd_sc_hd__dfrtp_4
*I *1846:RESET_B I *D sky130_fd_sc_hd__dfrtp_4
*I *1844:RESET_B I *D sky130_fd_sc_hd__dfrtp_4
*I *1843:RESET_B I *D sky130_fd_sc_hd__dfrtp_4
*I *1842:RESET_B I *D sky130_fd_sc_hd__dfrtp_4
*I *1841:RESET_B I *D sky130_fd_sc_hd__dfrtp_4
*I *1840:RESET_B I *D sky130_fd_sc_hd__dfrtp_4
*I *1839:RESET_B I *D sky130_fd_sc_hd__dfrtp_4
*I *1838:RESET_B I *D sky130_fd_sc_hd__dfrtp_4
*I *1837:RESET_B I *D sky130_fd_sc_hd__dfrtp_4
*I *1988:X O *D sky130_fd_sc_hd__buf_4
*CAP
1 *1845:RESET_B 8.90385e-05
2 *1849:RESET_B 0.000256895
3 *1848:RESET_B 0.000382553
4 *1847:RESET_B 0
5 *1846:RESET_B 0
6 *1844:RESET_B 0.000285509
7 *1843:RESET_B 0.000125315
8 *1842:RESET_B 0.00026061
9 *1841:RESET_B 0.000125315
10 *1840:RESET_B 0.00026061
11 *1839:RESET_B 9.72127e-05
12 *1838:RESET_B 0.000261596
13 *1837:RESET_B 6.5453e-05
14 *1988:X 0.000248971
15 *402:105 0.000207024
16 *402:98 0.000285546
17 *402:90 0.00054323
18 *402:74 0.000644101
19 *402:62 0.000580453
20 *402:52 0.000445159
21 *402:40 0.000559251
22 *402:30 0.000422773
23 *402:18 0.000613315
24 *402:8 0.0004933
25 *27:8 *1838:RESET_B 1.24376e-05
26 *28:10 *402:40 5.03912e-05
27 *29:8 *1840:RESET_B 6.17437e-06
28 *32:8 *1842:RESET_B 6.17437e-06
29 *390:43 *1848:RESET_B 0
30 *401:166 *1845:RESET_B 0.000169683
31 *401:166 *1848:RESET_B 0.000283088
32 *401:166 *1849:RESET_B 0.000109447
33 *401:166 *402:18 0
34 *401:166 *402:30 0
35 *401:166 *402:40 0
36 *401:166 *402:52 0
37 *401:166 *402:62 0
38 *401:166 *402:74 0
39 *401:166 *402:90 0
40 *401:166 *402:98 0.000441326
41 *401:166 *402:105 0.000171906
*RES
1 *1988:X *402:8 26.9771 
2 *402:8 *1837:RESET_B 1.02536 
3 *402:8 *402:18 18.3143 
4 *402:18 *1838:RESET_B 18.9046 
5 *402:18 *402:30 2.61 
6 *402:30 *1839:RESET_B 16.5018 
7 *402:30 *402:40 3.31429 
8 *402:40 *1840:RESET_B 18.9046 
9 *402:40 *402:52 2.61 
10 *402:52 *1841:RESET_B 16.9782 
11 *402:52 *402:62 3.31429 
12 *402:62 *1842:RESET_B 18.9046 
13 *402:62 *402:74 2.61 
14 *402:74 *1843:RESET_B 16.9782 
15 *402:74 *402:90 21.3386 
16 *402:90 *1844:RESET_B 1.02536 
17 *1844:RESET_B *402:98 20.7793 
18 *402:98 *1846:RESET_B 15 
19 *402:98 *402:105 2.25786 
20 *402:105 *1847:RESET_B 15 
21 *402:105 *1848:RESET_B 18.6664 
22 *1848:RESET_B *1849:RESET_B 34.6296 
23 *402:90 *1845:RESET_B 32.2579 
*END

*D_NET *403 0.0200572
*CONN
*I *1764:A I *D sky130_fd_sc_hd__nor4b_1
*I *1762:A I *D sky130_fd_sc_hd__nor4b_1
*I *1749:A I *D sky130_fd_sc_hd__nor4b_1
*I *1746:A I *D sky130_fd_sc_hd__nor4b_1
*I *1748:A I *D sky130_fd_sc_hd__nor4b_1
*I *1744:A I *D sky130_fd_sc_hd__nor4b_1
*I *1745:A I *D sky130_fd_sc_hd__nor4b_1
*I *1742:A I *D sky130_fd_sc_hd__nor4b_1
*I *1743:A I *D sky130_fd_sc_hd__nor4b_1
*I *1740:A I *D sky130_fd_sc_hd__nor4b_1
*I *1741:A I *D sky130_fd_sc_hd__nor4b_1
*I *1739:A I *D sky130_fd_sc_hd__nor4b_1
*I *1738:A I *D sky130_fd_sc_hd__nor4b_1
*I *1737:A I *D sky130_fd_sc_hd__nor4b_1
*I *1747:A I *D sky130_fd_sc_hd__nor4b_1
*I *1763:A I *D sky130_fd_sc_hd__nor4b_1
*I *1989:X O *D sky130_fd_sc_hd__buf_4
*CAP
1 *1764:A 8.87264e-05
2 *1762:A 0
3 *1749:A 6.89039e-05
4 *1746:A 5.29788e-05
5 *1748:A 0.000103347
6 *1744:A 6.69496e-05
7 *1745:A 0.000125618
8 *1742:A 7.93415e-05
9 *1743:A 0.000127035
10 *1740:A 7.56973e-05
11 *1741:A 0
12 *1739:A 8.13757e-05
13 *1738:A 0
14 *1737:A 0.000259494
15 *1747:A 0
16 *1763:A 2.30556e-05
17 *1989:X 7.52776e-05
18 *403:72 0.000350812
19 *403:70 0.000306037
20 *403:66 0.000442779
21 *403:58 0.000515548
22 *403:56 0.000449541
23 *403:54 0.000390487
24 *403:52 0.000388988
25 *403:50 0.000332201
26 *403:48 0.00034072
27 *403:46 0.000291855
28 *403:42 0.000288662
29 *403:33 0.000124786
30 *403:29 0.00156203
31 *403:27 0.00174618
32 *403:21 0.000362895
33 *403:15 0.000357881
34 *403:6 0.000216209
35 *403:6 *1989:A 0.000186051
36 *403:21 *416:128 0
37 *403:29 *1997:A 7.55509e-05
38 *403:29 *411:47 0
39 *403:29 *411:51 0
40 *403:29 *411:53 0
41 *403:29 *411:55 0
42 *403:29 *411:57 0
43 *403:29 *411:59 0
44 *403:29 *411:61 0
45 *403:29 *416:130 0.000102638
46 *403:29 *416:132 0.000254593
47 *433:DIODE *1737:A 0.000113422
48 *437:DIODE *403:29 0
49 *1737:C *1737:A 6.91845e-05
50 *1739:B *1739:A 0.000357957
51 *1739:C *1739:A 2.4754e-05
52 *1740:B *1740:A 1.24376e-05
53 *1741:B *403:66 1.24376e-05
54 *1742:B *1742:A 1.24376e-05
55 *1743:B *1743:A 1.24376e-05
56 *1743:C *1743:A 9.41704e-05
57 *1744:B *1744:A 2.36725e-05
58 *1744:C *1744:A 1.21972e-05
59 *1745:B *1745:A 5.09572e-05
60 *1745:C *1745:A 2.02872e-05
61 *1746:B *1746:A 1.24376e-05
62 *1746:C *1746:A 5.94258e-05
63 *1747:B *403:33 1.3523e-05
64 *1747:B *403:42 7.95088e-05
65 *1747:C *403:42 1.37702e-05
66 *1748:B *1748:A 6.17437e-06
67 *1748:C *1748:A 0.000182081
68 *1749:B *1749:A 1.24376e-05
69 *1749:B *403:42 0
70 *1749:C *1749:A 1.88805e-05
71 *1749:C *403:42 9.72821e-05
72 *1750:B *403:29 0
73 *1762:C *403:27 2.46906e-05
74 *1763:B *1764:A 4.08664e-05
75 *1763:B *403:15 0.000188927
76 *1764:B *1764:A 3.94558e-05
77 *1764:C *1764:A 4.03669e-05
78 *162:17 *1739:A 0.000314482
79 *164:17 *403:66 0.000328341
80 *166:17 *1743:A 9.58714e-05
81 *166:17 *403:54 0.000126866
82 *166:17 *403:56 0.000276775
83 *166:17 *403:58 1.14452e-05
84 *168:13 *1745:A 0.000141215
85 *171:13 *403:33 5.67058e-05
86 *172:17 *1748:A 5.56279e-05
87 *172:17 *403:46 7.45997e-05
88 *172:17 *403:48 0.000124873
89 *172:17 *403:50 6.07611e-06
90 *173:17 *1749:A 9.58714e-05
91 *173:17 *403:29 0
92 *174:19 *403:29 6.059e-05
93 *187:13 *403:27 0.000274234
94 *188:15 *403:6 7.12999e-05
95 *189:21 *1764:A 9.84851e-05
96 *277:6 *1737:A 3.22465e-05
97 *290:10 *1749:A 0.000178517
98 *290:10 *403:42 4.78497e-05
99 *384:18 *1764:A 0.000183451
100 *384:18 *403:21 2.4306e-05
101 *384:20 *403:21 0.000228593
102 *384:26 *403:21 1.12863e-05
103 *384:26 *403:29 0
104 *384:66 *403:66 1.41129e-05
105 *394:10 *1737:A 0.000137361
106 *394:29 *1737:A 1.22906e-05
107 *394:35 *1737:A 5.58975e-06
108 *394:35 *403:70 3.85802e-05
109 *394:35 *403:72 8.54797e-05
110 *394:47 *403:66 0.000178517
111 *394:57 *1740:A 1.75562e-05
112 *394:57 *403:70 4.2812e-06
113 *394:68 *403:58 5.80963e-05
114 *394:68 *403:66 1.9628e-05
115 *394:81 *403:58 1.99391e-05
116 *394:94 *403:54 4.15283e-06
117 *394:100 *403:52 0.000128417
118 *394:100 *403:54 5.95079e-05
119 *394:113 *403:50 0.000127433
120 *394:113 *403:52 8.89816e-05
121 *394:128 *403:46 2.51382e-05
122 *394:128 *403:48 0.000237072
123 *394:128 *403:50 6.38433e-05
124 *394:134 *1746:A 6.17437e-06
125 *394:147 *403:29 0
126 *394:151 *403:33 5.40971e-05
127 *394:151 *403:42 5.40241e-05
128 *394:153 *403:29 0.00308232
129 *394:163 *403:21 5.11805e-05
130 *400:82 *1737:A 8.57382e-05
131 *400:82 *403:50 5.51325e-05
132 *400:82 *403:52 6.71018e-05
133 *400:82 *403:54 1.27263e-05
134 *400:82 *403:70 0.000204346
135 *400:82 *403:72 0.000178317
*RES
1 *1989:X *403:6 25.5271 
2 *403:6 *1763:A 23.4971 
3 *403:6 *403:15 2.52714 
4 *403:15 *403:21 33.6664 
5 *403:21 *403:27 18.9771 
6 *403:27 *403:29 41.6979 
7 *403:29 *403:33 16.0979 
8 *403:33 *1747:A 23 
9 *403:33 *403:42 3.50071 
10 *403:42 *403:46 17.2579 
11 *403:46 *403:48 3.31429 
12 *403:48 *403:50 2.61 
13 *403:50 *403:52 2.96214 
14 *403:52 *403:54 2.61 
15 *403:54 *403:56 3.66643 
16 *403:56 *403:58 2.25786 
17 *403:58 *403:66 21.2143 
18 *403:66 *403:70 17.9621 
19 *403:70 *403:72 2.61 
20 *403:72 *1737:A 43.4893 
21 *403:72 *1738:A 38 
22 *403:70 *1739:A 41.9564 
23 *403:66 *1741:A 23 
24 *403:58 *1740:A 39.4707 
25 *403:56 *1743:A 40.5479 
26 *403:54 *1742:A 39.4707 
27 *403:52 *1745:A 40.5479 
28 *403:50 *1744:A 39.1186 
29 *403:48 *1748:A 40.5479 
30 *403:46 *1746:A 39.1186 
31 *403:42 *1749:A 25.0507 
32 *403:21 *1762:A 23 
33 *403:15 *1764:A 26.0243 
*END

*D_NET *404 0.014854
*CONN
*I *1853:RESET_B I *D sky130_fd_sc_hd__dfrtp_4
*I *1879:RESET_B I *D sky130_fd_sc_hd__dfrtp_4
*I *1865:RESET_B I *D sky130_fd_sc_hd__dfrtp_4
*I *1864:RESET_B I *D sky130_fd_sc_hd__dfrtp_4
*I *1863:RESET_B I *D sky130_fd_sc_hd__dfrtp_4
*I *1862:RESET_B I *D sky130_fd_sc_hd__dfrtp_4
*I *1861:RESET_B I *D sky130_fd_sc_hd__dfrtp_4
*I *1860:RESET_B I *D sky130_fd_sc_hd__dfrtp_4
*I *1859:RESET_B I *D sky130_fd_sc_hd__dfrtp_4
*I *1858:RESET_B I *D sky130_fd_sc_hd__dfrtp_4
*I *1857:RESET_B I *D sky130_fd_sc_hd__dfrtp_4
*I *1856:RESET_B I *D sky130_fd_sc_hd__dfrtp_4
*I *1855:RESET_B I *D sky130_fd_sc_hd__dfrtp_4
*I *1854:RESET_B I *D sky130_fd_sc_hd__dfrtp_4
*I *1852:RESET_B I *D sky130_fd_sc_hd__dfrtp_4
*I *1851:RESET_B I *D sky130_fd_sc_hd__dfrtp_4
*I *1990:X O *D sky130_fd_sc_hd__clkbuf_8
*CAP
1 *1853:RESET_B 0.000341108
2 *1879:RESET_B 0
3 *1865:RESET_B 0.000102518
4 *1864:RESET_B 0
5 *1863:RESET_B 0
6 *1862:RESET_B 0.000369212
7 *1861:RESET_B 0
8 *1860:RESET_B 9.52972e-05
9 *1859:RESET_B 0
10 *1858:RESET_B 9.52972e-05
11 *1857:RESET_B 0.000146258
12 *1856:RESET_B 6.25089e-05
13 *1855:RESET_B 0.000127352
14 *1854:RESET_B 6.25089e-05
15 *1852:RESET_B 4.08008e-05
16 *1851:RESET_B 0.000232246
17 *1990:X 0
18 *404:164 0.00155578
19 *404:148 0.00190856
20 *404:137 0.000429357
21 *404:130 0.000310543
22 *404:111 0.000478587
23 *404:99 0.000479617
24 *404:92 0.00038432
25 *404:80 0.000521392
26 *404:68 0.000475938
27 *404:56 0.000418485
28 *404:44 0.000484976
29 *404:32 0.000520573
30 *404:18 0.000660608
31 *404:14 0.000792669
32 *404:4 0.000376004
33 *404:164 *1866:RESET_B 0.000141869
34 *404:164 *1878:RESET_B 0.00025307
35 *404:164 *405:23 0.000308661
36 *404:164 *405:30 0.000138708
37 *404:164 *405:42 0.000305509
38 *404:164 *405:49 0.000171906
39 *404:164 *405:56 0.000283088
40 *404:164 *405:63 0.000171906
41 *404:164 *405:70 0.000283088
42 *404:164 *405:77 0.000141869
43 *404:164 *405:89 0.000308661
44 *404:164 *405:96 0.00019747
45 mstream_o[53] *404:164 0
46 *1853:D *1853:RESET_B 9.61927e-05
47 *2:13 *1853:RESET_B 0.000111852
48 *2:13 *404:14 0.000275473
49 *41:8 *1851:RESET_B 0.000141954
50 *48:12 *404:80 0
51 *48:12 *404:92 0
52 *54:10 *404:130 0
53 *54:10 *404:137 0
54 *59:10 *404:164 0
55 *65:10 *404:164 0
56 *70:10 *404:164 0
57 *376:27 *1857:RESET_B 5.0155e-05
58 *376:27 *404:32 0
59 *376:27 *404:44 0
60 *376:27 *404:56 0
61 *376:27 *404:68 0
62 *376:27 *404:80 0
63 *390:37 *404:130 0
64 *390:37 *404:137 0
65 *390:37 *404:148 0
*RES
1 *1990:X *404:4 23 
2 *404:4 *1851:RESET_B 4.83679 
3 *404:4 *404:14 18.6664 
4 *404:14 *404:18 19.4329 
5 *404:18 *1852:RESET_B 0.548929 
6 *404:18 *404:32 20.8414 
7 *404:32 *1854:RESET_B 16.0461 
8 *404:32 *404:44 2.25786 
9 *404:44 *1855:RESET_B 16.8746 
10 *404:44 *404:56 3.66643 
11 *404:56 *1856:RESET_B 16.0461 
12 *404:56 *404:68 2.25786 
13 *404:68 *1857:RESET_B 17.3511 
14 *404:68 *404:80 2.96214 
15 *404:80 *1858:RESET_B 16.7504 
16 *404:80 *404:92 3.31429 
17 *404:92 *1859:RESET_B 15 
18 *404:92 *404:99 2.61 
19 *404:99 *1860:RESET_B 16.7504 
20 *404:99 *404:111 3.31429 
21 *404:111 *1861:RESET_B 15 
22 *404:111 *1862:RESET_B 19.3604 
23 *1862:RESET_B *404:130 17.2579 
24 *404:130 *1863:RESET_B 15 
25 *404:130 *404:137 3.66643 
26 *404:137 *1864:RESET_B 15 
27 *404:137 *404:148 4.43286 
28 *404:148 *1865:RESET_B 16.7504 
29 *404:148 *404:164 38.9429 
30 *404:164 *1879:RESET_B 15 
31 *404:14 *1853:RESET_B 20.6032 
*END

*D_NET *405 0.00689716
*CONN
*I *1878:RESET_B I *D sky130_fd_sc_hd__dfrtp_4
*I *1877:RESET_B I *D sky130_fd_sc_hd__dfrtp_4
*I *1876:RESET_B I *D sky130_fd_sc_hd__dfrtp_4
*I *1875:RESET_B I *D sky130_fd_sc_hd__dfrtp_4
*I *1874:RESET_B I *D sky130_fd_sc_hd__dfrtp_4
*I *1873:RESET_B I *D sky130_fd_sc_hd__dfrtp_4
*I *1872:RESET_B I *D sky130_fd_sc_hd__dfrtp_4
*I *1871:RESET_B I *D sky130_fd_sc_hd__dfrtp_4
*I *1870:RESET_B I *D sky130_fd_sc_hd__dfrtp_4
*I *1869:RESET_B I *D sky130_fd_sc_hd__dfrtp_4
*I *1868:RESET_B I *D sky130_fd_sc_hd__dfrtp_4
*I *1866:RESET_B I *D sky130_fd_sc_hd__dfrtp_4
*I *1867:RESET_B I *D sky130_fd_sc_hd__dfrtp_4
*I *1991:X O *D sky130_fd_sc_hd__buf_4
*CAP
1 *1878:RESET_B 0.000117155
2 *1877:RESET_B 4.54475e-05
3 *1876:RESET_B 0
4 *1875:RESET_B 0.000139143
5 *1874:RESET_B 0
6 *1873:RESET_B 0
7 *1872:RESET_B 0
8 *1871:RESET_B 0
9 *1870:RESET_B 0
10 *1869:RESET_B 0.000158851
11 *1868:RESET_B 0
12 *1866:RESET_B 7.51495e-05
13 *1867:RESET_B 0.000450168
14 *1991:X 0.000276054
15 *405:96 0.000260953
16 *405:89 0.000243354
17 *405:77 0.00035612
18 *405:70 0.000190116
19 *405:63 0.000210228
20 *405:56 0.000210228
21 *405:49 0.000199901
22 *405:42 0.000226307
23 *405:30 0.00038523
24 *405:23 0.000216536
25 *405:14 0.000383969
26 *359:6 *1869:RESET_B 4.64451e-05
27 *390:33 *405:89 0
28 *390:33 *405:96 0
29 *390:35 *405:70 0
30 *390:35 *405:77 0
31 *390:35 *405:89 0
32 *390:37 *1866:RESET_B 0
33 *390:37 *405:23 0
34 *390:37 *405:30 0
35 *390:37 *405:42 0
36 *390:37 *405:49 0
37 *390:37 *405:56 0
38 *390:37 *405:63 0
39 *404:164 *1866:RESET_B 0.000141869
40 *404:164 *1878:RESET_B 0.00025307
41 *404:164 *405:23 0.000308661
42 *404:164 *405:30 0.000138708
43 *404:164 *405:42 0.000305509
44 *404:164 *405:49 0.000171906
45 *404:164 *405:56 0.000283088
46 *404:164 *405:63 0.000171906
47 *404:164 *405:70 0.000283088
48 *404:164 *405:77 0.000141869
49 *404:164 *405:89 0.000308661
50 *404:164 *405:96 0.00019747
*RES
1 *1991:X *1867:RESET_B 27.8368 
2 *1867:RESET_B *405:14 17.3511 
3 *405:14 *1866:RESET_B 16.9057 
4 *405:14 *405:23 4.01857 
5 *405:23 *1868:RESET_B 15 
6 *405:23 *405:30 1.90571 
7 *405:30 *1869:RESET_B 17.3511 
8 *405:30 *405:42 4.01857 
9 *405:42 *1870:RESET_B 15 
10 *405:42 *405:49 2.25786 
11 *405:49 *1871:RESET_B 15 
12 *405:49 *405:56 3.66643 
13 *405:56 *1872:RESET_B 15 
14 *405:56 *405:63 2.25786 
15 *405:63 *1873:RESET_B 15 
16 *405:63 *405:70 3.66643 
17 *405:70 *1874:RESET_B 15 
18 *405:70 *405:77 1.90571 
19 *405:77 *1875:RESET_B 16.8746 
20 *405:77 *405:89 4.01857 
21 *405:89 *1876:RESET_B 15 
22 *405:89 *405:96 2.61 
23 *405:96 *1877:RESET_B 15.5489 
24 *405:96 *1878:RESET_B 18.3143 
*END

*D_NET *406 0.0136678
*CONN
*I *1880:RESET_B I *D sky130_fd_sc_hd__dfrtp_4
*I *1907:RESET_B I *D sky130_fd_sc_hd__dfrtp_4
*I *1906:RESET_B I *D sky130_fd_sc_hd__dfrtp_4
*I *1893:RESET_B I *D sky130_fd_sc_hd__dfrtp_4
*I *1892:RESET_B I *D sky130_fd_sc_hd__dfrtp_4
*I *1891:RESET_B I *D sky130_fd_sc_hd__dfrtp_4
*I *1890:RESET_B I *D sky130_fd_sc_hd__dfrtp_4
*I *1889:RESET_B I *D sky130_fd_sc_hd__dfrtp_4
*I *1888:RESET_B I *D sky130_fd_sc_hd__dfrtp_4
*I *1887:RESET_B I *D sky130_fd_sc_hd__dfrtp_4
*I *1885:RESET_B I *D sky130_fd_sc_hd__dfrtp_4
*I *1886:RESET_B I *D sky130_fd_sc_hd__dfrtp_4
*I *1884:RESET_B I *D sky130_fd_sc_hd__dfrtp_4
*I *1883:RESET_B I *D sky130_fd_sc_hd__dfrtp_4
*I *1882:RESET_B I *D sky130_fd_sc_hd__dfrtp_4
*I *1881:RESET_B I *D sky130_fd_sc_hd__dfrtp_4
*I *1992:X O *D sky130_fd_sc_hd__clkbuf_8
*CAP
1 *1880:RESET_B 0.000186194
2 *1907:RESET_B 0.000275647
3 *1906:RESET_B 0
4 *1893:RESET_B 0.0016186
5 *1892:RESET_B 6.86828e-05
6 *1891:RESET_B 2.72885e-05
7 *1890:RESET_B 6.25089e-05
8 *1889:RESET_B 3.84494e-05
9 *1888:RESET_B 4.76236e-05
10 *1887:RESET_B 2.72885e-05
11 *1885:RESET_B 0.000290715
12 *1886:RESET_B 3.53581e-05
13 *1884:RESET_B 6.24944e-05
14 *1883:RESET_B 0.000162927
15 *1882:RESET_B 0
16 *1881:RESET_B 0.000267473
17 *1992:X 0.000167679
18 *406:182 0.00093681
19 *406:174 0.00214749
20 *406:145 0.000476342
21 *406:131 0.000476968
22 *406:119 0.00042451
23 *406:105 0.000361099
24 *406:95 0.000422288
25 *406:77 0.000401953
26 *406:57 0.000326073
27 *406:55 0.000486992
28 *406:39 0.000663997
29 *406:23 0.000525096
30 *406:16 0.000316135
31 *406:6 0.000417931
32 *406:174 *407:26 0
33 *406:174 *407:38 0
34 *406:174 *407:50 0
35 *406:174 *407:62 0
36 *406:174 *407:69 0
37 *406:174 *407:89 8.44989e-05
38 *406:174 *407:100 9.26005e-05
39 *406:182 *1905:RESET_B 6.67764e-05
40 *406:182 *407:100 0.00019095
41 *406:182 *407:110 8.15327e-05
42 *406:182 *407:128 0.000224855
43 *74:8 *406:6 0.00010018
44 *76:10 *406:23 0
45 *76:10 *406:39 0
46 *80:10 *1885:RESET_B 0.000479496
47 *84:10 *406:131 0
48 *90:10 *406:174 8.74016e-05
49 *95:10 *406:174 4.88217e-05
50 *101:10 *406:182 0
51 *237:8 *1880:RESET_B 2.34771e-05
52 *361:8 *406:95 0
53 *361:8 *406:119 0
54 *361:18 *1887:RESET_B 4.88741e-05
55 *362:6 *1891:RESET_B 4.88741e-05
56 *380:83 *1885:RESET_B 0.000191011
57 *380:83 *1886:RESET_B 1.16434e-05
58 *380:83 *406:55 0.00016419
*RES
1 *1992:X *406:6 26.48 
2 *406:6 *1881:RESET_B 1.02536 
3 *1881:RESET_B *406:16 18.8632 
4 *406:16 *1882:RESET_B 15 
5 *406:16 *406:23 1.90571 
6 *406:23 *1883:RESET_B 17.3511 
7 *406:23 *406:39 4.43286 
8 *406:39 *1884:RESET_B 16.0461 
9 *406:39 *406:55 7.25 
10 *406:55 *406:57 15 
11 *406:57 *1886:RESET_B 0.548929 
12 *406:57 *1885:RESET_B 8.83464 
13 *406:55 *406:77 2.25786 
14 *406:77 *1887:RESET_B 15.5489 
15 *406:77 *406:95 5.19929 
16 *406:95 *1888:RESET_B 15.5489 
17 *406:95 *406:105 2.25786 
18 *406:105 *1889:RESET_B 15.5489 
19 *406:105 *406:119 3.72857 
20 *406:119 *1890:RESET_B 16.0461 
21 *406:119 *406:131 2.96214 
22 *406:131 *1891:RESET_B 15.5489 
23 *406:131 *406:145 4.90929 
24 *406:145 *1892:RESET_B 16.0254 
25 *406:145 *1893:RESET_B 17.2579 
26 *1893:RESET_B *406:174 43.6789 
27 *406:174 *406:182 44.6243 
28 *406:182 *1906:RESET_B 15 
29 *406:182 *1907:RESET_B 19.2568 
30 *406:6 *1880:RESET_B 33.2832 
*END

*D_NET *407 0.00580686
*CONN
*I *1905:RESET_B I *D sky130_fd_sc_hd__dfrtp_4
*I *1904:RESET_B I *D sky130_fd_sc_hd__dfrtp_4
*I *1903:RESET_B I *D sky130_fd_sc_hd__dfrtp_4
*I *1902:RESET_B I *D sky130_fd_sc_hd__dfrtp_4
*I *1901:RESET_B I *D sky130_fd_sc_hd__dfrtp_4
*I *1900:RESET_B I *D sky130_fd_sc_hd__dfrtp_4
*I *1899:RESET_B I *D sky130_fd_sc_hd__dfrtp_4
*I *1898:RESET_B I *D sky130_fd_sc_hd__dfrtp_4
*I *1897:RESET_B I *D sky130_fd_sc_hd__dfrtp_4
*I *1896:RESET_B I *D sky130_fd_sc_hd__dfrtp_4
*I *1894:RESET_B I *D sky130_fd_sc_hd__dfrtp_4
*I *1895:RESET_B I *D sky130_fd_sc_hd__dfrtp_4
*I *1993:X O *D sky130_fd_sc_hd__clkbuf_4
*CAP
1 *1905:RESET_B 8.16054e-05
2 *1904:RESET_B 3.95515e-05
3 *1903:RESET_B 3.84494e-05
4 *1902:RESET_B 4.76236e-05
5 *1901:RESET_B 0
6 *1900:RESET_B 0.000107894
7 *1899:RESET_B 0
8 *1898:RESET_B 0.000107894
9 *1897:RESET_B 0.000127352
10 *1896:RESET_B 6.25089e-05
11 *1894:RESET_B 0.000168488
12 *1895:RESET_B 0.000229163
13 *1993:X 0.000229163
14 *407:128 0.000288244
15 *407:110 0.000301256
16 *407:100 0.000296175
17 *407:89 0.000386924
18 *407:69 0.000488909
19 *407:62 0.00035495
20 *407:50 0.000496663
21 *407:38 0.000454155
22 *407:26 0.000399381
23 *407:10 0.0003593
24 *406:174 *407:26 0
25 *406:174 *407:38 0
26 *406:174 *407:50 0
27 *406:174 *407:62 0
28 *406:174 *407:69 0
29 *406:174 *407:89 8.44989e-05
30 *406:174 *407:100 9.26005e-05
31 *406:182 *1905:RESET_B 6.67764e-05
32 *406:182 *407:100 0.00019095
33 *406:182 *407:110 8.15327e-05
34 *406:182 *407:128 0.000224855
*RES
1 *1993:X *1895:RESET_B 26.8839 
2 *1895:RESET_B *407:10 15 
3 *407:10 *1894:RESET_B 17.8068 
4 *407:10 *407:26 3.72857 
5 *407:26 *1896:RESET_B 16.0461 
6 *407:26 *407:38 2.25786 
7 *407:38 *1897:RESET_B 16.8746 
8 *407:38 *407:50 2.96214 
9 *407:50 *1898:RESET_B 16.7504 
10 *407:50 *407:62 3.31429 
11 *407:62 *1899:RESET_B 15 
12 *407:62 *407:69 2.61 
13 *407:69 *1900:RESET_B 16.7504 
14 *407:69 *407:89 5.19929 
15 *407:89 *1901:RESET_B 15 
16 *407:89 *407:100 4.43286 
17 *407:100 *1902:RESET_B 15.5489 
18 *407:100 *407:110 2.25786 
19 *407:110 *1903:RESET_B 15.5489 
20 *407:110 *407:128 5.19929 
21 *407:128 *1904:RESET_B 15.5489 
22 *407:128 *1905:RESET_B 16.9057 
*END

*D_NET *408 0.0159859
*CONN
*I *1917:RESET_B I *D sky130_fd_sc_hd__dfrtp_4
*I *1918:RESET_B I *D sky130_fd_sc_hd__dfrtp_4
*I *1937:RESET_B I *D sky130_fd_sc_hd__dfrtp_4
*I *1936:RESET_B I *D sky130_fd_sc_hd__dfrtp_4
*I *1920:RESET_B I *D sky130_fd_sc_hd__dfrtp_4
*I *1921:RESET_B I *D sky130_fd_sc_hd__dfrtp_4
*I *1919:RESET_B I *D sky130_fd_sc_hd__dfrtp_4
*I *1916:RESET_B I *D sky130_fd_sc_hd__dfrtp_4
*I *1915:RESET_B I *D sky130_fd_sc_hd__dfrtp_4
*I *1914:RESET_B I *D sky130_fd_sc_hd__dfrtp_4
*I *1913:RESET_B I *D sky130_fd_sc_hd__dfrtp_4
*I *1912:RESET_B I *D sky130_fd_sc_hd__dfrtp_4
*I *1911:RESET_B I *D sky130_fd_sc_hd__dfrtp_4
*I *1910:RESET_B I *D sky130_fd_sc_hd__dfrtp_4
*I *1908:RESET_B I *D sky130_fd_sc_hd__dfrtp_4
*I *1909:RESET_B I *D sky130_fd_sc_hd__dfrtp_4
*I *1994:X O *D sky130_fd_sc_hd__clkbuf_8
*CAP
1 *1917:RESET_B 0.000488912
2 *1918:RESET_B 4.26824e-05
3 *1937:RESET_B 0.000693469
4 *1936:RESET_B 0.000233666
5 *1920:RESET_B 0.000173964
6 *1921:RESET_B 0.000276099
7 *1919:RESET_B 0.000529714
8 *1916:RESET_B 9.52972e-05
9 *1915:RESET_B 0.000127352
10 *1914:RESET_B 9.52972e-05
11 *1913:RESET_B 0.00016366
12 *1912:RESET_B 6.25089e-05
13 *1911:RESET_B 0
14 *1910:RESET_B 8.81556e-05
15 *1908:RESET_B 0.000303052
16 *1909:RESET_B 4.10072e-05
17 *1994:X 0.000365914
18 *408:182 0.000568115
19 *408:157 0.00230002
20 *408:135 0.00182615
21 *408:117 0.00063569
22 *408:105 0.000693201
23 *408:93 0.000539823
24 *408:81 0.00049648
25 *408:69 0.000473153
26 *408:57 0.000412294
27 *408:46 0.000346917
28 *408:34 0.000612053
29 *408:14 0.000686347
30 *408:6 0.000406921
31 *408:6 *449:DIODE 0.000127821
32 *408:6 *1994:A 0.000233359
33 *408:157 *409:20 0
34 *408:157 *409:32 0
35 *408:157 *409:44 0
36 *408:157 *409:56 0
37 *408:157 *409:68 0
38 *408:157 *409:80 0
39 *408:157 *409:92 0
40 mstream_o[114] *1937:RESET_B 0
41 mstream_o[91] *408:81 0
42 mstream_o[96] *408:117 0
43 *1821:B *408:157 0.000140661
44 *11:10 *408:157 0.000153507
45 *20:8 *1936:RESET_B 5.3304e-05
46 *20:8 *1937:RESET_B 9.67842e-05
47 *105:10 *408:6 2.4732e-05
48 *112:10 *408:105 0
49 *112:10 *408:117 0
50 *356:130 *1921:RESET_B 0.000122147
51 *364:10 *408:157 0
52 *371:71 *408:157 0.000508306
53 *371:86 *1919:RESET_B 0
54 *371:86 *408:135 0.00021622
55 *371:86 *408:157 0.000531102
*RES
1 *1994:X *408:6 29.815 
2 *408:6 *1909:RESET_B 0.548929 
3 *408:6 *408:14 15 
4 *408:14 *1908:RESET_B 19.3604 
5 *408:14 *408:34 21.6079 
6 *408:34 *1910:RESET_B 1.5225 
7 *408:34 *408:46 17.61 
8 *408:46 *1911:RESET_B 15 
9 *408:46 *408:57 4.08071 
10 *408:57 *1912:RESET_B 16.0461 
11 *408:57 *408:69 2.25786 
12 *408:69 *1913:RESET_B 17.3511 
13 *408:69 *408:81 2.96214 
14 *408:81 *1914:RESET_B 16.7504 
15 *408:81 *408:93 2.96214 
16 *408:93 *1915:RESET_B 16.8746 
17 *408:93 *408:105 2.96214 
18 *408:105 *1916:RESET_B 16.7504 
19 *408:105 *408:117 7.01179 
20 *408:117 *1919:RESET_B 18.7493 
21 *1919:RESET_B *408:135 23.2339 
22 *408:135 *1921:RESET_B 17.4546 
23 *1921:RESET_B *1920:RESET_B 33.2832 
24 *408:135 *408:157 46.4857 
25 *408:157 *1936:RESET_B 3.88393 
26 *408:157 *1937:RESET_B 42.47 
27 *408:117 *408:182 15.9425 
28 *408:182 *1918:RESET_B 0.548929 
29 *408:182 *1917:RESET_B 7.69536 
*END

*D_NET *409 0.00811029
*CONN
*I *1923:RESET_B I *D sky130_fd_sc_hd__dfrtp_4
*I *1935:RESET_B I *D sky130_fd_sc_hd__dfrtp_4
*I *1934:RESET_B I *D sky130_fd_sc_hd__dfrtp_4
*I *1933:RESET_B I *D sky130_fd_sc_hd__dfrtp_4
*I *1932:RESET_B I *D sky130_fd_sc_hd__dfrtp_4
*I *1931:RESET_B I *D sky130_fd_sc_hd__dfrtp_4
*I *1930:RESET_B I *D sky130_fd_sc_hd__dfrtp_4
*I *1929:RESET_B I *D sky130_fd_sc_hd__dfrtp_4
*I *1928:RESET_B I *D sky130_fd_sc_hd__dfrtp_4
*I *1927:RESET_B I *D sky130_fd_sc_hd__dfrtp_4
*I *1926:RESET_B I *D sky130_fd_sc_hd__dfrtp_4
*I *1925:RESET_B I *D sky130_fd_sc_hd__dfrtp_4
*I *1924:RESET_B I *D sky130_fd_sc_hd__dfrtp_4
*I *1922:RESET_B I *D sky130_fd_sc_hd__dfrtp_4
*I *1995:X O *D sky130_fd_sc_hd__buf_4
*CAP
1 *1923:RESET_B 0
2 *1935:RESET_B 0.000200859
3 *1934:RESET_B 0
4 *1933:RESET_B 9.52972e-05
5 *1932:RESET_B 0.000127352
6 *1931:RESET_B 0.000114243
7 *1930:RESET_B 6.39753e-05
8 *1929:RESET_B 0.00016366
9 *1928:RESET_B 6.25089e-05
10 *1927:RESET_B 0.00016366
11 *1926:RESET_B 3.73653e-05
12 *1925:RESET_B 0.00016366
13 *1924:RESET_B 6.25089e-05
14 *1922:RESET_B 6.41951e-05
15 *1995:X 0.000250169
16 *409:140 0.000457112
17 *409:128 0.000523218
18 *409:116 0.000628282
19 *409:104 0.000615124
20 *409:92 0.000431931
21 *409:80 0.000503467
22 *409:68 0.000406254
23 *409:56 0.000517515
24 *409:44 0.000401856
25 *409:32 0.000518041
26 *409:20 0.000408692
27 *409:16 0.000327192
28 *409:6 0.000438843
29 mstream_o[114] *1935:RESET_B 0
30 *1956:A *1926:RESET_B 1.94693e-05
31 *5:8 *409:6 0.000182547
32 *11:10 *409:80 0
33 *11:10 *409:92 0
34 *19:10 *1935:RESET_B 0
35 *137:31 *1931:RESET_B 3.98653e-05
36 *371:12 *1926:RESET_B 6.64204e-05
37 *371:71 *1930:RESET_B 5.50049e-05
38 *371:71 *1935:RESET_B 0
39 *371:71 *409:104 0
40 *371:71 *409:116 0
41 *371:71 *409:128 0
42 *371:71 *409:140 0
43 *408:157 *409:20 0
44 *408:157 *409:32 0
45 *408:157 *409:44 0
46 *408:157 *409:56 0
47 *408:157 *409:68 0
48 *408:157 *409:80 0
49 *408:157 *409:92 0
*RES
1 *1995:X *409:6 27.4329 
2 *409:6 *1922:RESET_B 1.02536 
3 *409:6 *409:16 17.2579 
4 *409:16 *409:20 3.93571 
5 *409:20 *1924:RESET_B 16.0461 
6 *409:20 *409:32 2.25786 
7 *409:32 *1925:RESET_B 17.3511 
8 *409:32 *409:44 3.66643 
9 *409:44 *1926:RESET_B 16.0461 
10 *409:44 *409:56 2.25786 
11 *409:56 *1927:RESET_B 17.3511 
12 *409:56 *409:68 3.66643 
13 *409:68 *1928:RESET_B 16.0461 
14 *409:68 *409:80 2.25786 
15 *409:80 *1929:RESET_B 17.3511 
16 *409:80 *409:92 3.31429 
17 *409:92 *1930:RESET_B 16.3982 
18 *409:92 *409:104 2.61 
19 *409:104 *1931:RESET_B 16.8746 
20 *409:104 *409:116 5.77929 
21 *409:116 *1932:RESET_B 16.8746 
22 *409:116 *409:128 2.96214 
23 *409:128 *1933:RESET_B 16.7504 
24 *409:128 *409:140 3.66643 
25 *409:140 *1934:RESET_B 15 
26 *409:140 *1935:RESET_B 19.0807 
27 *409:16 *1923:RESET_B 15 
*END

*D_NET *410 0.0374926
*CONN
*I *446:DIODE I *D sky130_fd_sc_hd__diode_2
*I *1995:A I *D sky130_fd_sc_hd__buf_4
*I *450:DIODE I *D sky130_fd_sc_hd__diode_2
*I *449:DIODE I *D sky130_fd_sc_hd__diode_2
*I *1994:A I *D sky130_fd_sc_hd__clkbuf_8
*I *448:DIODE I *D sky130_fd_sc_hd__diode_2
*I *1993:A I *D sky130_fd_sc_hd__clkbuf_4
*I *447:DIODE I *D sky130_fd_sc_hd__diode_2
*I *1992:A I *D sky130_fd_sc_hd__clkbuf_8
*I *1991:A I *D sky130_fd_sc_hd__buf_4
*I *445:DIODE I *D sky130_fd_sc_hd__diode_2
*I *1990:A I *D sky130_fd_sc_hd__clkbuf_8
*I *443:DIODE I *D sky130_fd_sc_hd__diode_2
*I *1988:A I *D sky130_fd_sc_hd__buf_4
*I *442:DIODE I *D sky130_fd_sc_hd__diode_2
*I *1987:A I *D sky130_fd_sc_hd__clkbuf_8
*I *1996:X O *D sky130_fd_sc_hd__buf_4
*CAP
1 *446:DIODE 6.20023e-05
2 *1995:A 0.000109955
3 *450:DIODE 0
4 *449:DIODE 0.00011782
5 *1994:A 3.99527e-05
6 *448:DIODE 5.01949e-05
7 *1993:A 0.00013394
8 *447:DIODE 6.24897e-05
9 *1992:A 0
10 *1991:A 3.4816e-05
11 *445:DIODE 8.25057e-05
12 *1990:A 2.95294e-05
13 *443:DIODE 0
14 *1988:A 0.000152902
15 *442:DIODE 6.25751e-05
16 *1987:A 0
17 *1996:X 0.000292509
18 *410:141 0.000109955
19 *410:139 0.00172104
20 *410:123 0.000157772
21 *410:121 0.0036315
22 *410:103 0.000184135
23 *410:101 0.00379102
24 *410:87 0.000108127
25 *410:83 0.00409025
26 *410:81 0.00216405
27 *410:79 0.00011772
28 *410:70 0.000161928
29 *410:66 0.00190521
30 *410:55 0.00196857
31 *410:44 0.00169614
32 *410:28 0.000152902
33 *410:26 0.003866
34 *410:12 6.25751e-05
35 *410:10 0.00254414
36 mstream_o[91] *410:139 0
37 *2:13 *410:26 0
38 *2:13 *410:44 0
39 *2:13 *410:66 0
40 *2:13 *410:83 0
41 *3:9 *410:10 0
42 *3:9 *410:26 0
43 *4:8 *410:10 0.000362421
44 *5:8 *1995:A 0.000146822
45 *31:8 *442:DIODE 0.000143543
46 *41:8 *445:DIODE 5.12254e-05
47 *41:8 *1990:A 5.50049e-05
48 *74:8 *447:DIODE 0.000141677
49 *74:8 *410:87 9.84851e-05
50 *76:10 *410:101 0
51 *84:10 *410:101 0
52 *90:10 *410:121 0
53 *95:10 *410:121 0
54 *101:10 *410:121 0
55 *105:10 *449:DIODE 0.00036023
56 *105:10 *1994:A 0.000233359
57 *106:10 *410:139 0
58 *112:10 *410:139 0
59 *356:10 *410:83 0
60 *356:16 *410:66 0.000455451
61 *356:16 *410:83 0
62 *356:18 *410:26 0.00010019
63 *356:18 *410:44 0.00145718
64 *356:18 *410:55 4.18957e-05
65 *356:18 *410:66 0.00144658
66 *356:22 *410:26 0.000150883
67 *356:90 *410:101 0.00044558
68 *356:110 *410:101 3.11081e-05
69 *356:126 *410:101 0.000211803
70 *356:126 *410:121 0.000809367
71 *356:126 *410:139 0.000668135
72 *356:158 *410:139 5.62888e-05
73 *361:8 *410:101 0
74 *371:86 *410:139 0
75 *408:6 *449:DIODE 0.000127821
76 *408:6 *1994:A 0.000233359
*RES
1 *1996:X *410:10 44.5664 
2 *410:10 *410:12 15 
3 *410:12 *1987:A 23 
4 *410:12 *442:DIODE 24.5743 
5 *410:10 *410:26 40.6414 
6 *410:26 *410:28 15 
7 *410:28 *1988:A 25.7757 
8 *410:28 *443:DIODE 23 
9 *410:26 *410:44 38.5286 
10 *410:44 *1990:A 38.6214 
11 *410:44 *410:55 1.20143 
12 *410:55 *445:DIODE 39.0979 
13 *410:55 *410:66 44.1629 
14 *410:66 *410:70 16.5743 
15 *410:70 *1991:A 23.6214 
16 *410:70 *410:79 1.20143 
17 *410:79 *410:81 15 
18 *410:81 *410:83 38.5286 
19 *410:83 *410:87 16.0979 
20 *410:87 *1992:A 23 
21 *410:87 *447:DIODE 24.5743 
22 *410:83 *410:101 38.8807 
23 *410:101 *410:103 15 
24 *410:103 *1993:A 25.0714 
25 *410:103 *448:DIODE 23.6214 
26 *410:101 *410:121 40.2893 
27 *410:121 *410:123 15 
28 *410:123 *1994:A 25.5271 
29 *410:123 *449:DIODE 26.9564 
30 *410:121 *410:139 36.0636 
31 *410:139 *410:141 15 
32 *410:141 *450:DIODE 23 
33 *410:141 *1995:A 25.7757 
34 *410:79 *446:DIODE 24.0979 
*END

*D_NET *411 0.00941965
*CONN
*I *1761:A I *D sky130_fd_sc_hd__nor4b_1
*I *1756:A I *D sky130_fd_sc_hd__nor4b_1
*I *1757:A I *D sky130_fd_sc_hd__nor4b_1
*I *1754:A I *D sky130_fd_sc_hd__nor4b_1
*I *1755:A I *D sky130_fd_sc_hd__nor4b_1
*I *1752:A I *D sky130_fd_sc_hd__nor4b_1
*I *1751:A I *D sky130_fd_sc_hd__nor4b_1
*I *1753:A I *D sky130_fd_sc_hd__nor4b_1
*I *1750:A I *D sky130_fd_sc_hd__nor4b_1
*I *1758:A I *D sky130_fd_sc_hd__nor4b_1
*I *1759:A I *D sky130_fd_sc_hd__nor4b_1
*I *1760:A I *D sky130_fd_sc_hd__nor4b_1
*I *1997:X O *D sky130_fd_sc_hd__clkbuf_4
*CAP
1 *1761:A 0.000193319
2 *1756:A 0
3 *1757:A 0.00013666
4 *1754:A 0
5 *1755:A 8.79375e-05
6 *1752:A 0
7 *1751:A 0.000163707
8 *1753:A 0.000244337
9 *1750:A 8.87518e-05
10 *1758:A 0.000111191
11 *1759:A 0
12 *1760:A 2.07933e-05
13 *1997:X 8.89526e-05
14 *411:61 0.000456882
15 *411:59 0.000375138
16 *411:57 0.000224915
17 *411:55 0.000323302
18 *411:53 0.00024446
19 *411:51 0.000385076
20 *411:47 0.000338206
21 *411:30 0.000542456
22 *411:21 0.000553885
23 *411:17 0.000709655
24 *411:6 0.000267299
25 *437:DIODE *1750:A 2.23884e-05
26 *437:DIODE *411:61 8.02143e-06
27 *1750:B *1750:A 8.50366e-05
28 *1750:B *411:61 5.56164e-05
29 *1750:C *1750:A 1.89688e-05
30 *1751:B *1751:A 0.000122803
31 *1751:C *1753:A 0.000137651
32 *1755:C *1755:A 2.46906e-05
33 *1757:B *1757:A 1.46286e-05
34 *1757:C *1757:A 0.00011529
35 *1758:B *1758:A 1.08287e-05
36 *1758:C *1758:A 2.93335e-05
37 *1758:C *411:30 8.53325e-05
38 *1759:C *411:30 0.000112958
39 *1760:B *1760:A 1.12349e-05
40 *1760:B *411:17 3.03136e-05
41 *1760:C *411:17 5.56279e-05
42 *1761:B *1761:A 8.4047e-05
43 *1761:C *1761:A 2.70366e-05
44 *177:17 *1753:A 2.02872e-05
45 *177:17 *411:57 2.71502e-05
46 *177:17 *411:59 1.35751e-05
47 *179:13 *1755:A 0.000181805
48 *180:13 *411:47 5.79559e-05
49 *182:13 *1757:A 0.000179473
50 *184:17 *411:30 9.41704e-05
51 *185:13 *411:6 0.000102389
52 *294:14 *1751:A 5.56279e-05
53 *294:14 *1753:A 5.86015e-06
54 *302:10 *411:30 1.46286e-05
55 *304:10 *411:17 5.3304e-05
56 *360:10 *1755:A 0.000226238
57 *384:26 *411:47 5.97946e-05
58 *384:26 *411:51 0.000192261
59 *384:26 *411:53 0.000270393
60 *384:26 *411:55 0.000164171
61 *384:26 *411:57 0.000187902
62 *385:25 *1761:A 9.73644e-05
63 *385:25 *411:21 0.000590062
64 *385:81 *411:59 0.000141975
65 *385:81 *411:61 7.45331e-05
66 *403:29 *411:47 0
67 *403:29 *411:51 0
68 *403:29 *411:53 0
69 *403:29 *411:55 0
70 *403:29 *411:57 0
71 *403:29 *411:59 0
72 *403:29 *411:61 0
*RES
1 *1997:X *411:6 24.5743 
2 *411:6 *1760:A 23.4971 
3 *411:6 *411:17 17.5271 
4 *411:17 *411:21 22.8921 
5 *411:21 *1759:A 23 
6 *411:21 *411:30 3.97714 
7 *411:30 *1758:A 25.0714 
8 *411:30 *411:47 34.4121 
9 *411:47 *411:51 17.61 
10 *411:51 *411:53 3.66643 
11 *411:53 *411:55 2.25786 
12 *411:55 *411:57 3.31429 
13 *411:57 *411:59 2.25786 
14 *411:59 *411:61 1.90571 
15 *411:61 *1750:A 40.0507 
16 *411:61 *1753:A 41.3764 
17 *411:59 *1751:A 41.5214 
18 *411:57 *1752:A 38 
19 *411:55 *1755:A 41.0243 
20 *411:53 *1754:A 38 
21 *411:51 *1757:A 41.0243 
22 *411:47 *1756:A 23 
23 *411:17 *1761:A 41.3143 
*END

*D_NET *412 0.0206093
*CONN
*I *1790:A I *D sky130_fd_sc_hd__nor4b_1
*I *1789:A I *D sky130_fd_sc_hd__nor4b_1
*I *1788:A I *D sky130_fd_sc_hd__nor4b_1
*I *1777:A I *D sky130_fd_sc_hd__nor4b_1
*I *1775:A I *D sky130_fd_sc_hd__nor4b_1
*I *1774:A I *D sky130_fd_sc_hd__nor4b_1
*I *1772:A I *D sky130_fd_sc_hd__nor4b_1
*I *1773:A I *D sky130_fd_sc_hd__nor4b_1
*I *1770:A I *D sky130_fd_sc_hd__nor4b_1
*I *1771:A I *D sky130_fd_sc_hd__nor4b_1
*I *1769:A I *D sky130_fd_sc_hd__nor4b_1
*I *1768:A I *D sky130_fd_sc_hd__nor4b_1
*I *1767:A I *D sky130_fd_sc_hd__nor4b_1
*I *1765:A I *D sky130_fd_sc_hd__nor4b_1
*I *1766:A I *D sky130_fd_sc_hd__nor4b_1
*I *1791:A I *D sky130_fd_sc_hd__nor4b_1
*I *1998:X O *D sky130_fd_sc_hd__buf_4
*CAP
1 *1790:A 7.62692e-05
2 *1789:A 0.000143978
3 *1788:A 5.54467e-05
4 *1777:A 7.2288e-05
5 *1775:A 0
6 *1774:A 0.000161266
7 *1772:A 0
8 *1773:A 0.000183788
9 *1770:A 0
10 *1771:A 0
11 *1769:A 0
12 *1768:A 0.000223195
13 *1767:A 0
14 *1765:A 0.000394579
15 *1766:A 6.66298e-05
16 *1791:A 0.000119489
17 *1998:X 8.22092e-05
18 *412:130 0.000524566
19 *412:67 0.000729822
20 *412:65 0.000409083
21 *412:63 0.000488934
22 *412:61 0.000431927
23 *412:59 0.00123022
24 *412:57 0.000678759
25 *412:55 0.000236353
26 *412:53 0.000468005
27 *412:47 0.000463721
28 *412:39 0.000775234
29 *412:35 0.00144009
30 *412:27 0.00119215
31 *412:25 0.000322088
32 *412:23 0.000337231
33 *412:6 0.000386748
34 *1791:A *453:DIODE 0.000152972
35 *412:23 *416:76 0
36 *412:25 *416:76 0
37 *412:27 *416:76 0
38 *412:27 *416:82 0
39 *412:35 *413:21 0.000208217
40 *412:35 *413:23 0.000203003
41 *412:35 *413:25 0.000179702
42 *412:35 *413:27 0.000208818
43 *412:35 *413:29 0.000164291
44 *412:35 *416:82 0
45 *412:39 *416:120 0.0012006
46 *412:47 *416:120 0.000213679
47 *1766:B *1765:A 1.77896e-05
48 *1766:C *1766:A 2.71291e-05
49 *1766:C *412:67 7.45175e-05
50 *1768:C *1768:A 3.47821e-05
51 *1773:C *1773:A 4.67488e-05
52 *1782:B *412:35 0.000136743
53 *1788:B *1788:A 2.31687e-05
54 *1789:B *1789:A 2.93845e-05
55 *1790:B *1790:A 2.31687e-05
56 *1791:B *1791:A 5.24984e-05
57 *1887:CLK *412:59 0
58 *1904:CLK *1788:A 0
59 *1906:CLK *412:23 0
60 *1952:A *1774:A 6.19346e-05
61 *196:17 *412:130 4.32061e-05
62 *197:17 *412:130 1.59094e-05
63 *199:15 *412:57 0.000187335
64 *199:15 *412:59 0.000420937
65 *199:15 *412:130 4.18905e-05
66 *202:13 *412:47 0.000231502
67 *204:15 *1774:A 2.05503e-05
68 *205:13 *1777:A 1.24376e-05
69 *217:13 *1788:A 1.24376e-05
70 *219:13 *1790:A 1.24376e-05
71 *237:16 *412:23 0.000206577
72 *237:16 *412:25 0.000131744
73 *237:16 *412:27 0.000186025
74 *237:16 *412:35 0.00122934
75 *309:18 *1765:A 0.000318801
76 *313:6 *1768:A 1.94693e-05
77 *319:6 *1773:A 2.64616e-05
78 *321:6 *412:53 5.3304e-05
79 *337:6 *1789:A 6.17437e-06
80 *339:10 *1791:A 1.32314e-05
81 *339:10 *412:6 0.00019063
82 *339:10 *412:23 0
83 *362:6 *412:53 9.41704e-05
84 *362:14 *412:55 1.88972e-05
85 *367:36 *1774:A 0
86 *386:144 *412:47 5.56279e-05
87 *386:144 *412:53 3.15221e-05
88 *386:148 *1777:A 5.28646e-05
89 *386:162 *1777:A 2.02872e-05
90 *386:162 *412:39 0.000217653
91 *386:162 *412:47 8.7985e-05
92 *390:14 *412:59 0
93 *390:14 *412:61 0
94 *390:137 *412:130 2.27197e-05
95 *390:149 *412:47 6.26767e-05
96 *396:40 *412:67 0.000107651
97 *396:55 *412:65 0.000104051
98 *396:55 *412:67 6.07611e-06
99 *396:68 *412:61 3.62323e-05
100 *396:68 *412:63 9.03157e-05
101 *396:68 *412:65 6.07611e-06
102 *396:83 *412:61 0.00015965
103 *396:121 *412:59 9.18909e-05
104 *396:121 *412:61 2.85696e-05
105 *396:133 *1773:A 6.17437e-06
106 *396:141 *1774:A 4.92689e-05
107 *396:141 *412:53 2.02872e-05
108 *396:141 *412:55 0.000164291
109 *396:158 *412:53 8.48502e-06
110 *400:158 *412:39 0.000932287
*RES
1 *1998:X *412:6 25.0507 
2 *412:6 *1791:A 26.045 
3 *412:6 *412:23 18.4593 
4 *412:23 *412:25 1.90571 
5 *412:25 *412:27 2.61 
6 *412:27 *412:35 37.4543 
7 *412:35 *412:39 31.3436 
8 *412:39 *412:47 21.815 
9 *412:47 *412:53 18.0243 
10 *412:53 *412:55 2.96214 
11 *412:55 *412:57 2.61 
12 *412:57 *412:59 8.59643 
13 *412:59 *412:61 6.13143 
14 *412:61 *412:63 2.61 
15 *412:63 *412:65 2.96214 
16 *412:65 *412:67 5.075 
17 *412:67 *1766:A 38.8493 
18 *412:67 *1765:A 43.7586 
19 *412:65 *1767:A 38 
20 *412:63 *1768:A 41.5214 
21 *412:61 *1769:A 38 
22 *412:59 *412:130 33.2684 
23 *412:130 *1771:A 23 
24 *412:59 *1770:A 38 
25 *412:57 *1773:A 40.5271 
26 *412:55 *1772:A 38 
27 *412:53 *1774:A 40.9621 
28 *412:47 *1775:A 23 
29 *412:39 *1777:A 39.6157 
30 *412:27 *1788:A 39.1186 
31 *412:25 *1789:A 40.0507 
32 *412:23 *1790:A 39.6157 
*END

*D_NET *413 0.00818053
*CONN
*I *1786:A I *D sky130_fd_sc_hd__nor4b_1
*I *1785:A I *D sky130_fd_sc_hd__nor4b_1
*I *1784:A I *D sky130_fd_sc_hd__nor4b_1
*I *1783:A I *D sky130_fd_sc_hd__nor4b_1
*I *1782:A I *D sky130_fd_sc_hd__nor4b_1
*I *1781:A I *D sky130_fd_sc_hd__nor4b_1
*I *1778:A I *D sky130_fd_sc_hd__nor4b_1
*I *1780:A I *D sky130_fd_sc_hd__nor4b_1
*I *1776:A I *D sky130_fd_sc_hd__nor4b_1
*I *1779:A I *D sky130_fd_sc_hd__nor4b_1
*I *1787:A I *D sky130_fd_sc_hd__nor4b_1
*I *1999:X O *D sky130_fd_sc_hd__buf_2
*CAP
1 *1786:A 0
2 *1785:A 0.000222294
3 *1784:A 0
4 *1783:A 0.000200244
5 *1782:A 0
6 *1781:A 0.000185523
7 *1778:A 0
8 *1780:A 0.000262026
9 *1776:A 0
10 *1779:A 8.42351e-05
11 *1787:A 0.000178867
12 *1999:X 8.31861e-05
13 *413:67 0.000262026
14 *413:60 0.000136949
15 *413:41 0.000452155
16 *413:33 0.000401832
17 *413:31 0.000487974
18 *413:29 0.000273101
19 *413:27 0.000481383
20 *413:25 0.000260697
21 *413:23 0.000485287
22 *413:21 0.000251421
23 *413:8 0.000371549
24 *413:8 *416:100 2.93431e-05
25 *413:21 *416:100 0.000216507
26 *413:23 *416:100 2.26497e-05
27 *1778:B *1780:A 0.000166987
28 *1779:C *413:41 1.37232e-05
29 *206:17 *1780:A 0.000180224
30 *207:15 *1779:A 1.12349e-05
31 *207:15 *413:60 7.86509e-06
32 *210:15 *413:31 0.000179321
33 *237:16 *413:29 1.88972e-05
34 *237:16 *413:31 1.54891e-05
35 *237:16 *413:33 9.8445e-05
36 *237:16 *413:41 8.93663e-05
37 *237:16 *413:60 0.000166522
38 *326:6 *413:41 5.73309e-05
39 *327:10 *1780:A 4.21281e-05
40 *328:6 *1781:A 2.93747e-05
41 *330:6 *1783:A 2.64616e-05
42 *332:6 *1785:A 5.3304e-05
43 *335:6 *1787:A 2.64616e-05
44 *335:6 *413:8 8.48502e-06
45 *366:58 *413:23 0
46 *367:77 *413:33 0
47 *367:88 *413:31 0
48 *387:10 *1779:A 3.76965e-05
49 *387:22 *413:60 0.00030873
50 *387:47 *1780:A 0.000198351
51 *397:6 *413:41 4.63801e-05
52 *397:14 *1779:A 1.5769e-05
53 *397:14 *413:41 5.37348e-06
54 *397:124 *413:41 1.68817e-05
55 *400:158 *413:60 3.7122e-06
56 *400:231 *413:60 4.27352e-05
57 *412:35 *413:21 0.000208217
58 *412:35 *413:23 0.000203003
59 *412:35 *413:25 0.000179702
60 *412:35 *413:27 0.000208818
61 *412:35 *413:29 0.000164291
*RES
1 *1999:X *413:8 24.595 
2 *413:8 *1787:A 25.5271 
3 *413:8 *413:21 18.4593 
4 *413:21 *413:23 2.96214 
5 *413:23 *413:25 2.61 
6 *413:25 *413:27 2.96214 
7 *413:27 *413:29 2.96214 
8 *413:29 *413:31 2.96214 
9 *413:31 *413:33 2.96214 
10 *413:33 *413:41 20.0336 
11 *413:41 *1779:A 24.595 
12 *413:41 *413:60 34.3293 
13 *413:60 *1776:A 23 
14 *413:33 *413:67 15 
15 *413:67 *1780:A 29.4007 
16 *413:67 *1778:A 23 
17 *413:31 *1781:A 40.5271 
18 *413:29 *1782:A 38 
19 *413:27 *1783:A 40.5271 
20 *413:25 *1784:A 38 
21 *413:23 *1785:A 41.1693 
22 *413:21 *1786:A 38 
*END

*D_NET *414 0.0207047
*CONN
*I *1799:A I *D sky130_fd_sc_hd__nor4b_1
*I *1800:A I *D sky130_fd_sc_hd__nor4b_1
*I *1802:A I *D sky130_fd_sc_hd__nor4b_1
*I *1803:A I *D sky130_fd_sc_hd__nor4b_1
*I *1804:A I *D sky130_fd_sc_hd__nor4b_1
*I *1818:A I *D sky130_fd_sc_hd__nor4b_1
*I *1820:A I *D sky130_fd_sc_hd__nor4b_1
*I *1819:A I *D sky130_fd_sc_hd__nor4b_1
*I *1801:A I *D sky130_fd_sc_hd__nor4b_1
*I *1797:A I *D sky130_fd_sc_hd__nor4b_1
*I *1796:A I *D sky130_fd_sc_hd__nor4b_1
*I *1795:A I *D sky130_fd_sc_hd__nor4b_1
*I *1794:A I *D sky130_fd_sc_hd__nor4b_1
*I *1793:A I *D sky130_fd_sc_hd__nor4b_1
*I *1792:A I *D sky130_fd_sc_hd__nor4b_1
*I *1798:A I *D sky130_fd_sc_hd__nor4b_1
*I *2000:X O *D sky130_fd_sc_hd__buf_4
*CAP
1 *1799:A 5.73083e-05
2 *1800:A 9.18344e-05
3 *1802:A 0
4 *1803:A 8.89097e-05
5 *1804:A 0.000292043
6 *1818:A 0
7 *1820:A 0
8 *1819:A 0.000356791
9 *1801:A 0.000107965
10 *1797:A 0
11 *1796:A 0
12 *1795:A 0.000154923
13 *1794:A 0
14 *1793:A 0.000199516
15 *1792:A 0.000169218
16 *1798:A 0
17 *2000:X 0
18 *414:173 0.000187429
19 *414:165 0.000713384
20 *414:144 0.00189784
21 *414:138 0.00172506
22 *414:126 0.001125
23 *414:122 0.000554768
24 *414:110 0.00051177
25 *414:93 0.000503947
26 *414:87 0.000495833
27 *414:79 0.000273208
28 *414:27 0.000493655
29 *414:25 0.000261659
30 *414:23 0.000442928
31 *414:21 0.000427066
32 *414:17 0.000466484
33 *414:10 0.00036335
34 *414:4 0.000211652
35 *1799:A *416:10 1.21972e-05
36 *1799:A *416:14 2.64616e-05
37 *414:79 *2000:A 6.17437e-06
38 *414:79 *416:14 6.96783e-05
39 *414:87 *455:DIODE 7.50374e-05
40 *414:87 *416:10 6.15719e-05
41 *414:87 *416:31 4.1229e-05
42 *414:144 *415:43 0
43 *414:144 *415:52 0
44 *414:144 *415:61 0
45 *414:144 *415:107 0
46 *414:144 *415:126 0.000140949
47 *414:165 *415:126 0.000244636
48 *414:165 *415:134 0
49 *1792:D_N *1792:A 1.14452e-05
50 *1795:C *1795:A 4.96717e-05
51 *1798:B *414:17 4.49778e-05
52 *1798:C *414:17 0.00018536
53 *1800:B *1800:A 5.3304e-05
54 *1800:B *414:93 1.18939e-05
55 *1801:B *1801:A 5.3304e-05
56 *1802:B *414:110 1.36904e-05
57 *1802:B *414:122 1.33082e-05
58 *1803:C *1803:A 2.02872e-05
59 *1804:B *1804:A 4.9662e-05
60 *1807:B *414:138 0.000135037
61 *1819:B *1819:A 7.80629e-05
62 *1819:C *1819:A 8.2289e-05
63 *1820:B *414:165 0
64 *1820:B *414:173 0.000324865
65 *1920:CLK *1803:A 0
66 *1936:CLK *1819:A 0
67 *124:13 *414:138 0.000114656
68 *131:19 *414:144 6.89129e-05
69 *136:13 *414:165 0.000276807
70 *137:17 *414:165 0
71 *137:31 *414:144 0
72 *138:13 *414:173 0.000182832
73 *227:15 *414:21 0.00023561
74 *229:17 *1799:A 4.21048e-05
75 *229:17 *414:79 0.000144501
76 *230:13 *1800:A 0.000126114
77 *230:13 *414:87 0.000140313
78 *232:13 *1801:A 0.000137651
79 *233:13 *414:122 1.3523e-05
80 *234:13 *1803:A 1.24376e-05
81 *234:13 *414:122 0.000105913
82 *237:16 *1792:A 0.000126548
83 *237:16 *414:21 8.9102e-05
84 *237:16 *414:23 0.000103019
85 *237:16 *414:25 0.000105072
86 *237:16 *414:27 7.45278e-05
87 *237:16 *414:93 0.000185666
88 *237:16 *414:110 6.79006e-05
89 *237:16 *414:126 0.000256843
90 *237:16 *414:138 0.000576468
91 *237:16 *414:173 1.43921e-05
92 *341:6 *1793:A 5.50049e-05
93 *343:6 *1795:A 2.93747e-05
94 *347:6 *414:17 0.000265187
95 *354:6 *1804:A 5.3304e-05
96 *356:147 *414:138 0
97 *363:16 *414:93 0.000242992
98 *363:16 *414:110 0.00012857
99 *363:16 *414:122 8.50366e-05
100 *369:14 *414:21 0
101 *388:8 *1793:A 2.95676e-05
102 *388:81 *414:17 6.70361e-05
103 *388:89 *414:21 1.00084e-05
104 *388:134 *1804:A 0
105 *388:155 *414:126 5.27196e-05
106 *388:168 *1804:A 6.05802e-05
107 *388:168 *414:126 6.98857e-05
108 *388:168 *414:138 5.62433e-06
109 *388:185 *1804:A 3.23857e-06
110 *388:218 *1819:A 9.41704e-05
111 *389:107 *414:144 0
112 *389:120 *414:144 0
113 *390:191 *414:10 0
114 *390:191 *414:87 0
115 *390:208 *414:138 1.12863e-05
116 *398:10 *1793:A 2.98648e-05
117 *398:101 *1800:A 2.02872e-05
118 *398:166 *1804:A 1.41077e-05
119 *398:166 *414:138 1.60583e-05
120 *398:166 *414:144 0.000397012
121 *398:168 *414:144 0.000614778
122 *398:191 *414:144 6.48142e-05
123 *398:191 *414:165 0.000603725
124 *398:241 *1792:A 2.29977e-05
125 *399:23 *414:138 8.62783e-05
126 *399:74 *414:144 0
127 *399:92 *414:144 8.22516e-05
128 *399:186 *414:138 7.7771e-05
129 *400:179 *1792:A 0.000136609
130 *400:194 *414:87 8.49627e-05
131 *400:194 *414:93 1.00084e-05
*RES
1 *2000:X *414:4 23 
2 *414:4 *414:10 32.9621 
3 *414:10 *1798:A 23 
4 *414:10 *414:17 4.90929 
5 *414:17 *414:21 20.7793 
6 *414:21 *414:23 2.96214 
7 *414:23 *414:25 2.96214 
8 *414:25 *414:27 2.25786 
9 *414:27 *1792:A 41.6664 
10 *414:27 *1793:A 41.5214 
11 *414:25 *1794:A 38 
12 *414:23 *1795:A 40.5271 
13 *414:21 *1796:A 38 
14 *414:17 *1797:A 23 
15 *414:4 *414:79 1.57429 
16 *414:79 *414:87 34.5364 
17 *414:87 *414:93 20.9243 
18 *414:93 *1801:A 40.0507 
19 *414:93 *414:110 18.7286 
20 *414:110 *414:122 35.1993 
21 *414:122 *414:126 18.4904 
22 *414:126 *414:138 43.3193 
23 *414:138 *414:144 24.1011 
24 *414:144 *1819:A 45.3225 
25 *414:144 *414:165 27.4286 
26 *414:165 *414:173 35.1371 
27 *414:173 *1820:A 23 
28 *414:165 *1818:A 23 
29 *414:126 *1804:A 42.6711 
30 *414:122 *1803:A 24.6157 
31 *414:110 *1802:A 23 
32 *414:87 *1800:A 25.0507 
33 *414:79 *1799:A 24.0979 
*END

*D_NET *415 0.0112495
*CONN
*I *1815:A I *D sky130_fd_sc_hd__nor4b_1
*I *1816:A I *D sky130_fd_sc_hd__nor4b_1
*I *1817:A I *D sky130_fd_sc_hd__nor4b_1
*I *1814:A I *D sky130_fd_sc_hd__nor4b_1
*I *1811:A I *D sky130_fd_sc_hd__nor4b_1
*I *1809:A I *D sky130_fd_sc_hd__nor4b_1
*I *1813:A I *D sky130_fd_sc_hd__nor4b_1
*I *1812:A I *D sky130_fd_sc_hd__nor4b_1
*I *1810:A I *D sky130_fd_sc_hd__nor4b_1
*I *1808:A I *D sky130_fd_sc_hd__nor4b_1
*I *1807:A I *D sky130_fd_sc_hd__nor4b_1
*I *1806:A I *D sky130_fd_sc_hd__nor4b_1
*I *1805:A I *D sky130_fd_sc_hd__nor4b_1
*I *2001:X O *D sky130_fd_sc_hd__clkbuf_4
*CAP
1 *1815:A 4.79646e-05
2 *1816:A 0.000122614
3 *1817:A 7.45558e-05
4 *1814:A 0
5 *1811:A 5.70541e-05
6 *1809:A 0.000189048
7 *1813:A 0.000231181
8 *1812:A 0
9 *1810:A 0
10 *1808:A 0
11 *1807:A 8.4597e-05
12 *1806:A 0
13 *1805:A 0.000335837
14 *2001:X 4.99221e-05
15 *415:134 0.000393642
16 *415:126 0.00075742
17 *415:107 0.000660985
18 *415:85 0.000443598
19 *415:72 0.000428677
20 *415:70 0.000207699
21 *415:61 0.000267963
22 *415:52 0.000434726
23 *415:43 0.000320532
24 *415:12 0.000468197
25 *415:10 0.000256396
26 *415:8 0.000183434
27 *1807:A *416:52 0.000219383
28 *415:8 *416:52 5.3304e-05
29 *1805:B *1805:A 0.0001788
30 *1805:B *415:12 6.38342e-05
31 *1807:B *1807:A 2.18409e-05
32 *1811:B *415:85 0.000175903
33 *1813:B *1813:A 9.90118e-05
34 *1813:B *415:85 2.02872e-05
35 *1816:C *1816:A 0.00013509
36 *1817:B *1817:A 1.59071e-05
37 *1817:C *1816:A 4.08664e-05
38 *1817:C *1817:A 5.56279e-05
39 *122:15 *1805:A 0.000217366
40 *124:13 *1807:A 0.00017761
41 *128:19 *1809:A 0.000331943
42 *128:19 *1811:A 5.15096e-05
43 *131:19 *415:126 0.000144501
44 *133:13 *1815:A 4.44329e-05
45 *133:13 *415:126 0.000188934
46 *137:17 *415:126 0
47 *137:17 *415:134 3.43083e-05
48 *137:31 *415:126 1.3523e-05
49 *237:16 *1809:A 5.79413e-06
50 *237:16 *1811:A 1.47563e-05
51 *249:8 *415:107 5.94936e-05
52 *254:12 *1816:A 0.000267513
53 *388:193 *415:126 2.46906e-05
54 *388:218 *415:126 0
55 *389:28 *415:12 9.93434e-05
56 *389:41 *415:10 5.86204e-05
57 *389:41 *415:12 4.94442e-05
58 *389:41 *415:43 0.000166003
59 *389:41 *415:52 1.05441e-05
60 *389:50 *415:52 0.000420253
61 *389:50 *415:61 1.12863e-05
62 *389:59 *415:61 0.000205135
63 *389:74 *415:61 0.000207336
64 *389:74 *415:70 1.12863e-05
65 *389:83 *415:70 0.00012857
66 *389:83 *415:107 8.79972e-05
67 *389:107 *415:107 0.000179301
68 *399:74 *415:61 0.000137441
69 *399:82 *1809:A 8.2041e-05
70 *399:92 *415:61 2.72882e-05
71 *399:92 *415:70 5.92365e-05
72 *399:92 *415:107 3.09219e-05
73 *399:141 *1815:A 5.56279e-05
74 *399:141 *415:134 0.00016401
75 *414:144 *415:43 0
76 *414:144 *415:52 0
77 *414:144 *415:61 0
78 *414:144 *415:107 0
79 *414:144 *415:126 0.000140949
80 *414:165 *415:126 0.000244636
81 *414:165 *415:134 0
*RES
1 *2001:X *415:8 38.6214 
2 *415:8 *415:10 0.849286 
3 *415:10 *415:12 2.96214 
4 *415:12 *1805:A 43.6343 
5 *415:12 *1806:A 38 
6 *415:10 *1807:A 40.5271 
7 *415:8 *415:43 2.25786 
8 *415:43 *1808:A 38 
9 *415:43 *415:52 5.77929 
10 *415:52 *1810:A 38 
11 *415:52 *415:61 5.77929 
12 *415:61 *1812:A 38 
13 *415:61 *415:70 1.90571 
14 *415:70 *415:72 15 
15 *415:72 *1813:A 26.3764 
16 *415:72 *415:85 17.5271 
17 *415:85 *1809:A 42.7229 
18 *415:85 *1811:A 39.2014 
19 *415:70 *415:107 18.6664 
20 *415:107 *1814:A 23 
21 *415:107 *415:126 41.4757 
22 *415:126 *415:134 33.8114 
23 *415:134 *1817:A 24.5743 
24 *415:134 *1816:A 26.48 
25 *415:126 *1815:A 24.0979 
*END

*D_NET *416 0.0461543
*CONN
*I *453:DIODE I *D sky130_fd_sc_hd__diode_2
*I *1998:A I *D sky130_fd_sc_hd__buf_4
*I *454:DIODE I *D sky130_fd_sc_hd__diode_2
*I *1999:A I *D sky130_fd_sc_hd__buf_2
*I *1989:A I *D sky130_fd_sc_hd__buf_4
*I *451:DIODE I *D sky130_fd_sc_hd__diode_2
*I *452:DIODE I *D sky130_fd_sc_hd__diode_2
*I *1967:A I *D sky130_fd_sc_hd__buf_4
*I *434:DIODE I *D sky130_fd_sc_hd__diode_2
*I *1978:A I *D sky130_fd_sc_hd__clkbuf_4
*I *444:DIODE I *D sky130_fd_sc_hd__diode_2
*I *1997:A I *D sky130_fd_sc_hd__clkbuf_4
*I *455:DIODE I *D sky130_fd_sc_hd__diode_2
*I *456:DIODE I *D sky130_fd_sc_hd__diode_2
*I *2001:A I *D sky130_fd_sc_hd__clkbuf_4
*I *2000:A I *D sky130_fd_sc_hd__buf_4
*I *2002:X O *D sky130_fd_sc_hd__clkbuf_4
*CAP
1 *453:DIODE 0.000391695
2 *1998:A 0
3 *454:DIODE 0
4 *1999:A 0
5 *1989:A 0.000258861
6 *451:DIODE 0
7 *452:DIODE 0.000142156
8 *1967:A 0
9 *434:DIODE 0
10 *1978:A 6.54117e-05
11 *444:DIODE 8.03846e-05
12 *1997:A 8.50766e-05
13 *455:DIODE 3.91115e-05
14 *456:DIODE 0
15 *2001:A 0
16 *2000:A 0.000159832
17 *2002:X 0
18 *416:240 0.000401141
19 *416:173 0.000547913
20 *416:165 0.000457917
21 *416:163 0.000328924
22 *416:159 0.00558341
23 *416:132 0.00552642
24 *416:130 0.000410458
25 *416:128 0.000343621
26 *416:126 0.00200004
27 *416:120 0.00320916
28 *416:100 0.00276696
29 *416:82 0.00136451
30 *416:76 0.000584975
31 *416:74 0.000989694
32 *416:52 0.000345889
33 *416:39 0.000527672
34 *416:31 0.00143565
35 *416:14 0.0015693
36 *416:10 0.000674939
37 *416:4 0.00114742
38 *1736:C *416:165 0.000274514
39 *1737:B *416:159 7.65863e-06
40 *1737:B *416:163 0.000256564
41 *1737:C *416:163 5.94125e-05
42 *1791:A *453:DIODE 0.000152972
43 *1799:A *416:10 1.21972e-05
44 *1799:A *416:14 2.64616e-05
45 *1799:B *416:10 6.53382e-05
46 *1807:A *416:52 0.000219383
47 *1807:B *416:52 1.46286e-05
48 *1807:C *416:52 9.90123e-06
49 *1904:CLK *416:82 0.000275482
50 *1905:CLK *416:76 3.20914e-05
51 *1905:CLK *416:82 5.09988e-05
52 *1906:CLK *416:74 0.000148527
53 *1906:CLK *416:76 0.000179266
54 *1906:CLK *416:240 1.2153e-05
55 *1907:CLK *416:74 0.000564507
56 *1915:CLK *416:74 2.64616e-05
57 *124:13 *416:39 0.000199911
58 *124:13 *416:52 4.03352e-05
59 *156:17 *444:DIODE 9.02575e-06
60 *156:17 *1978:A 3.85196e-05
61 *156:17 *416:173 3.4539e-05
62 *157:15 *416:165 9.59004e-05
63 *162:17 *416:159 5.51976e-06
64 *172:17 *416:159 0.000125494
65 *184:17 *416:159 0
66 *185:13 *1997:A 5.3304e-05
67 *186:13 *452:DIODE 6.60621e-05
68 *188:15 *1989:A 3.24862e-05
69 *201:17 *416:120 0
70 *206:17 *416:120 0
71 *220:13 *453:DIODE 5.68958e-05
72 *229:17 *2000:A 5.81222e-05
73 *229:17 *416:10 6.17437e-06
74 *231:17 *416:10 0.000140308
75 *235:19 *416:31 5.26314e-05
76 *237:14 *416:126 0
77 *237:16 *416:120 0
78 *335:6 *416:82 8.82386e-05
79 *335:6 *416:100 0.000144501
80 *339:10 *453:DIODE 0.00017626
81 *348:6 *416:10 4.64428e-05
82 *348:6 *416:74 1.46205e-05
83 *361:24 *416:126 0
84 *363:16 *416:31 0
85 *366:58 *416:100 0
86 *368:10 *416:74 0.000206587
87 *368:12 *416:74 0.00015822
88 *368:14 *416:74 0.000690208
89 *369:14 *416:74 0.00064159
90 *369:16 *416:74 0.000169683
91 *369:18 *416:74 0.00042646
92 *369:20 *416:74 0.000274553
93 *370:14 *416:52 1.90253e-05
94 *370:16 *416:52 9.5956e-06
95 *381:6 *416:165 0.000100803
96 *384:26 *1997:A 0
97 *384:26 *416:130 0
98 *384:26 *416:132 0
99 *384:66 *416:159 0
100 *385:25 *416:159 0.000129592
101 *386:25 *416:126 0
102 *386:29 *416:126 0
103 *386:33 *416:126 0
104 *386:43 *416:126 0.00038423
105 *386:107 *416:126 0
106 *386:144 *416:120 0
107 *386:170 *416:120 0
108 *387:38 *416:120 0.000138719
109 *390:137 *416:126 0.00034789
110 *390:149 *416:120 0.000168484
111 *390:149 *416:126 0.000226805
112 *390:191 *416:31 0.00051847
113 *391:10 *416:173 0.000164019
114 *392:14 *416:173 0.000183361
115 *394:29 *416:163 0.000128583
116 *394:153 *416:130 2.3529e-05
117 *394:163 *416:128 4.48671e-05
118 *394:163 *416:130 2.22183e-05
119 *396:133 *416:120 0.00014128
120 *398:166 *416:31 0.000259164
121 *399:36 *416:52 2.86209e-05
122 *400:26 *416:163 0
123 *400:82 *416:159 0.000132994
124 *400:82 *416:163 3.26609e-05
125 *400:116 *416:159 0.00201733
126 *400:158 *416:120 0.000222474
127 *400:194 *455:DIODE 8.50457e-05
128 *400:194 *416:10 0.000136281
129 *400:194 *416:31 0
130 *403:6 *1989:A 0.000186051
131 *403:21 *416:128 0
132 *403:29 *1997:A 7.55509e-05
133 *403:29 *416:130 0.000102638
134 *403:29 *416:132 0.000254593
135 *412:23 *416:76 0
136 *412:25 *416:76 0
137 *412:27 *416:76 0
138 *412:27 *416:82 0
139 *412:35 *416:82 0
140 *412:39 *416:120 0.0012006
141 *412:47 *416:120 0.000213679
142 *413:8 *416:100 2.93431e-05
143 *413:21 *416:100 0.000216507
144 *413:23 *416:100 2.26497e-05
145 *414:79 *2000:A 6.17437e-06
146 *414:79 *416:14 6.96783e-05
147 *414:87 *455:DIODE 7.50374e-05
148 *414:87 *416:10 6.15719e-05
149 *414:87 *416:31 4.1229e-05
150 *415:8 *416:52 5.3304e-05
*RES
1 *2002:X *416:4 23 
2 *416:4 *416:10 22.2914 
3 *416:10 *416:14 17.0507 
4 *416:14 *2000:A 25.7757 
5 *416:14 *416:31 41.5143 
6 *416:31 *416:39 18.6457 
7 *416:39 *2001:A 23 
8 *416:39 *416:52 36.4629 
9 *416:52 *456:DIODE 23 
10 *416:10 *455:DIODE 39.2014 
11 *416:4 *416:74 38.8732 
12 *416:74 *416:76 6.3075 
13 *416:76 *416:82 21.1729 
14 *416:82 *416:100 45.3701 
15 *416:100 *416:120 44.9854 
16 *416:120 *416:126 30.4914 
17 *416:126 *416:128 2.96214 
18 *416:128 *416:130 2.96214 
19 *416:130 *416:132 3.49036 
20 *416:132 *1997:A 39.6468 
21 *416:132 *416:159 45.326 
22 *416:159 *416:163 20.9554 
23 *416:163 *416:165 3.00357 
24 *416:165 *416:173 36.6907 
25 *416:173 *444:DIODE 24.0979 
26 *416:173 *1978:A 24.5536 
27 *416:165 *434:DIODE 23 
28 *416:163 *1967:A 23 
29 *416:130 *452:DIODE 40.0507 
30 *416:128 *451:DIODE 38 
31 *416:126 *1989:A 42.3293 
32 *416:82 *1999:A 23 
33 *416:76 *454:DIODE 38 
34 *416:74 *416:240 15.3211 
35 *416:240 *1998:A 23 
36 *416:240 *453:DIODE 30.6643 
*END
