*SPEF "ieee 1481-1999"
*DESIGN "bary_check_pipe_m"
*DATE "11:11:11 Fri 11 11, 1111"
*VENDOR "OpenRCX"
*PROGRAM "Parallel Extraction"
*VERSION "1.0"
*DESIGN_FLOW "NAME_SCOPE LOCAL" "PIN_CAP NONE"
*DIVIDER /
*DELIMITER :
*BUS_DELIMITER []
*T_UNIT 1 NS
*C_UNIT 1 PF
*R_UNIT 1 OHM
*L_UNIT 1 HENRY

*NAME_MAP
*1 busy_o
*2 clk_i
*3 mstream_i
*4 mstream_o[0]
*5 mstream_o[100]
*6 mstream_o[101]
*7 mstream_o[102]
*8 mstream_o[103]
*9 mstream_o[104]
*10 mstream_o[105]
*11 mstream_o[106]
*12 mstream_o[107]
*13 mstream_o[108]
*14 mstream_o[109]
*15 mstream_o[10]
*16 mstream_o[110]
*17 mstream_o[111]
*18 mstream_o[112]
*19 mstream_o[113]
*20 mstream_o[114]
*21 mstream_o[115]
*22 mstream_o[11]
*23 mstream_o[12]
*24 mstream_o[13]
*25 mstream_o[14]
*26 mstream_o[15]
*27 mstream_o[16]
*28 mstream_o[17]
*29 mstream_o[18]
*30 mstream_o[19]
*31 mstream_o[1]
*32 mstream_o[20]
*33 mstream_o[21]
*34 mstream_o[22]
*35 mstream_o[23]
*36 mstream_o[24]
*37 mstream_o[25]
*38 mstream_o[26]
*39 mstream_o[27]
*40 mstream_o[28]
*41 mstream_o[29]
*42 mstream_o[2]
*43 mstream_o[30]
*44 mstream_o[31]
*45 mstream_o[32]
*46 mstream_o[33]
*47 mstream_o[34]
*48 mstream_o[35]
*49 mstream_o[36]
*50 mstream_o[37]
*51 mstream_o[38]
*52 mstream_o[39]
*53 mstream_o[3]
*54 mstream_o[40]
*55 mstream_o[41]
*56 mstream_o[42]
*57 mstream_o[43]
*58 mstream_o[44]
*59 mstream_o[45]
*60 mstream_o[46]
*61 mstream_o[47]
*62 mstream_o[48]
*63 mstream_o[49]
*64 mstream_o[4]
*65 mstream_o[50]
*66 mstream_o[51]
*67 mstream_o[52]
*68 mstream_o[53]
*69 mstream_o[54]
*70 mstream_o[55]
*71 mstream_o[56]
*72 mstream_o[57]
*73 mstream_o[58]
*74 mstream_o[59]
*75 mstream_o[5]
*76 mstream_o[60]
*77 mstream_o[61]
*78 mstream_o[62]
*79 mstream_o[63]
*80 mstream_o[64]
*81 mstream_o[65]
*82 mstream_o[66]
*83 mstream_o[67]
*84 mstream_o[68]
*85 mstream_o[69]
*86 mstream_o[6]
*87 mstream_o[70]
*88 mstream_o[71]
*89 mstream_o[72]
*90 mstream_o[73]
*91 mstream_o[74]
*92 mstream_o[75]
*93 mstream_o[76]
*94 mstream_o[77]
*95 mstream_o[78]
*96 mstream_o[79]
*97 mstream_o[7]
*98 mstream_o[80]
*99 mstream_o[81]
*100 mstream_o[82]
*101 mstream_o[83]
*102 mstream_o[84]
*103 mstream_o[85]
*104 mstream_o[86]
*105 mstream_o[87]
*106 mstream_o[88]
*107 mstream_o[89]
*108 mstream_o[8]
*109 mstream_o[90]
*110 mstream_o[91]
*111 mstream_o[92]
*112 mstream_o[93]
*113 mstream_o[94]
*114 mstream_o[95]
*115 mstream_o[96]
*116 mstream_o[97]
*117 mstream_o[98]
*118 mstream_o[99]
*119 mstream_o[9]
*120 nrst_i
*121 sstream_i[0]
*122 sstream_i[100]
*123 sstream_i[101]
*124 sstream_i[102]
*125 sstream_i[103]
*126 sstream_i[104]
*127 sstream_i[105]
*128 sstream_i[106]
*129 sstream_i[107]
*130 sstream_i[108]
*131 sstream_i[109]
*132 sstream_i[10]
*133 sstream_i[110]
*134 sstream_i[111]
*135 sstream_i[112]
*136 sstream_i[113]
*137 sstream_i[114]
*138 sstream_i[115]
*139 sstream_i[11]
*140 sstream_i[12]
*141 sstream_i[13]
*142 sstream_i[14]
*143 sstream_i[15]
*144 sstream_i[16]
*145 sstream_i[17]
*146 sstream_i[18]
*147 sstream_i[19]
*148 sstream_i[1]
*149 sstream_i[20]
*150 sstream_i[21]
*151 sstream_i[22]
*152 sstream_i[23]
*153 sstream_i[24]
*154 sstream_i[25]
*155 sstream_i[26]
*156 sstream_i[27]
*157 sstream_i[28]
*158 sstream_i[29]
*159 sstream_i[2]
*160 sstream_i[30]
*161 sstream_i[31]
*162 sstream_i[32]
*163 sstream_i[33]
*164 sstream_i[34]
*165 sstream_i[35]
*166 sstream_i[36]
*167 sstream_i[37]
*168 sstream_i[38]
*169 sstream_i[39]
*170 sstream_i[3]
*171 sstream_i[40]
*172 sstream_i[41]
*173 sstream_i[42]
*174 sstream_i[43]
*175 sstream_i[44]
*176 sstream_i[45]
*177 sstream_i[46]
*178 sstream_i[47]
*179 sstream_i[48]
*180 sstream_i[49]
*181 sstream_i[4]
*182 sstream_i[50]
*183 sstream_i[51]
*184 sstream_i[52]
*185 sstream_i[53]
*186 sstream_i[54]
*187 sstream_i[55]
*188 sstream_i[56]
*189 sstream_i[57]
*190 sstream_i[58]
*191 sstream_i[59]
*192 sstream_i[5]
*193 sstream_i[60]
*194 sstream_i[61]
*195 sstream_i[62]
*196 sstream_i[63]
*197 sstream_i[64]
*198 sstream_i[65]
*199 sstream_i[66]
*200 sstream_i[67]
*201 sstream_i[68]
*202 sstream_i[69]
*203 sstream_i[6]
*204 sstream_i[70]
*205 sstream_i[71]
*206 sstream_i[72]
*207 sstream_i[73]
*208 sstream_i[74]
*209 sstream_i[75]
*210 sstream_i[76]
*211 sstream_i[77]
*212 sstream_i[78]
*213 sstream_i[79]
*214 sstream_i[7]
*215 sstream_i[80]
*216 sstream_i[81]
*217 sstream_i[82]
*218 sstream_i[83]
*219 sstream_i[84]
*220 sstream_i[85]
*221 sstream_i[86]
*222 sstream_i[87]
*223 sstream_i[88]
*224 sstream_i[89]
*225 sstream_i[8]
*226 sstream_i[90]
*227 sstream_i[91]
*228 sstream_i[92]
*229 sstream_i[93]
*230 sstream_i[94]
*231 sstream_i[95]
*232 sstream_i[96]
*233 sstream_i[97]
*234 sstream_i[98]
*235 sstream_i[99]
*236 sstream_i[9]
*237 sstream_o
*240 _000_
*241 _001_
*242 _002_
*243 _003_
*244 _004_
*245 _005_
*246 _006_
*247 _007_
*248 _008_
*249 _009_
*250 _010_
*251 _011_
*252 _012_
*253 _013_
*254 _014_
*255 _015_
*256 _016_
*257 _017_
*258 _018_
*259 _019_
*260 _020_
*261 _021_
*262 _022_
*263 _023_
*264 _024_
*265 _025_
*266 _026_
*267 _027_
*268 _028_
*269 _029_
*270 _030_
*271 _031_
*272 _032_
*273 _033_
*274 _034_
*275 _035_
*276 _036_
*277 _037_
*278 _038_
*279 _039_
*280 _040_
*281 _041_
*282 _042_
*283 _043_
*284 _044_
*285 _045_
*286 _046_
*287 _047_
*288 _048_
*289 _049_
*290 _050_
*291 _051_
*292 _052_
*293 _053_
*294 _054_
*295 _055_
*296 _056_
*297 _057_
*298 _058_
*299 _059_
*300 _060_
*301 _061_
*302 _062_
*303 _063_
*304 _064_
*305 _065_
*306 _066_
*307 _067_
*308 _068_
*309 _069_
*310 _070_
*311 _071_
*312 _072_
*313 _073_
*314 _074_
*315 _075_
*316 _076_
*317 _077_
*318 _078_
*319 _079_
*320 _080_
*321 _081_
*322 _082_
*323 _083_
*324 _084_
*325 _085_
*326 _086_
*327 _087_
*328 _088_
*329 _089_
*330 _090_
*331 _091_
*332 _092_
*333 _093_
*334 _094_
*335 _095_
*336 _096_
*337 _097_
*338 _098_
*339 _099_
*340 _100_
*341 _101_
*342 _102_
*343 _103_
*344 _104_
*345 _105_
*346 _106_
*347 _107_
*348 _108_
*349 _109_
*350 _110_
*351 _111_
*352 _112_
*353 _113_
*354 _114_
*355 _115_
*356 clknet_0_clk_i
*357 clknet_3_0_0_clk_i
*358 clknet_3_1_0_clk_i
*359 clknet_3_2_0_clk_i
*360 clknet_3_3_0_clk_i
*361 clknet_3_4_0_clk_i
*362 clknet_3_5_0_clk_i
*363 clknet_3_6_0_clk_i
*364 clknet_3_7_0_clk_i
*365 clknet_4_0__leaf_clk_i
*366 clknet_4_10__leaf_clk_i
*367 clknet_4_11__leaf_clk_i
*368 clknet_4_12__leaf_clk_i
*369 clknet_4_13__leaf_clk_i
*370 clknet_4_14__leaf_clk_i
*371 clknet_4_15__leaf_clk_i
*372 clknet_4_1__leaf_clk_i
*373 clknet_4_2__leaf_clk_i
*374 clknet_4_3__leaf_clk_i
*375 clknet_4_4__leaf_clk_i
*376 clknet_4_5__leaf_clk_i
*377 clknet_4_6__leaf_clk_i
*378 clknet_4_7__leaf_clk_i
*379 clknet_4_8__leaf_clk_i
*380 clknet_4_9__leaf_clk_i
*381 net1
*382 net10
*383 net11
*384 net12
*385 net13
*386 net14
*387 net15
*388 net16
*389 net17
*390 net18
*391 net19
*392 net2
*393 net20
*394 net21
*395 net22
*396 net23
*397 net24
*398 net25
*399 net26
*400 net27
*401 net28
*402 net29
*403 net3
*404 net30
*405 net31
*406 net32
*407 net33
*408 net34
*409 net35
*410 net36
*411 net4
*412 net5
*413 net6
*414 net7
*415 net8
*416 net9
*417 ANTENNA_clkbuf_3_0_0_clk_i_A
*418 ANTENNA_clkbuf_3_1_0_clk_i_A
*419 ANTENNA_clkbuf_3_2_0_clk_i_A
*420 ANTENNA_clkbuf_3_3_0_clk_i_A
*421 ANTENNA_clkbuf_3_4_0_clk_i_A
*422 ANTENNA_clkbuf_3_5_0_clk_i_A
*423 ANTENNA_clkbuf_3_6_0_clk_i_A
*424 ANTENNA_clkbuf_3_7_0_clk_i_A
*425 ANTENNA_fanout10_A
*426 ANTENNA_fanout11_A
*427 ANTENNA_fanout12_A
*428 ANTENNA_fanout13_A
*429 ANTENNA_fanout14_A
*430 ANTENNA_fanout15_A
*431 ANTENNA_fanout16_A
*432 ANTENNA_fanout17_A
*433 ANTENNA_fanout19_A
*434 ANTENNA_fanout1_A
*435 ANTENNA_fanout20_A
*436 ANTENNA_fanout21_A
*437 ANTENNA_fanout22_A
*438 ANTENNA_fanout23_A
*439 ANTENNA_fanout24_A
*440 ANTENNA_fanout25_A
*441 ANTENNA_fanout26_A
*442 ANTENNA_fanout28_A
*443 ANTENNA_fanout29_A
*444 ANTENNA_fanout2_A
*445 ANTENNA_fanout30_A
*446 ANTENNA_fanout31_A
*447 ANTENNA_fanout32_A
*448 ANTENNA_fanout33_A
*449 ANTENNA_fanout34_A
*450 ANTENNA_fanout35_A
*451 ANTENNA_fanout3_A
*452 ANTENNA_fanout4_A
*453 ANTENNA_fanout5_A
*454 ANTENNA_fanout6_A
*455 ANTENNA_fanout7_A
*456 ANTENNA_fanout8_A
*457 FILLER_0_0_15
*458 FILLER_0_0_27
*459 FILLER_0_0_29
*460 FILLER_0_0_3
*461 FILLER_0_0_41
*462 FILLER_0_0_53
*463 FILLER_0_0_57
*464 FILLER_0_0_69
*465 FILLER_0_100_15
*466 FILLER_0_100_29
*467 FILLER_0_100_3
*468 FILLER_0_100_35
*469 FILLER_0_100_59
*470 FILLER_0_100_71
*471 FILLER_0_100_79
*472 FILLER_0_101_15
*473 FILLER_0_101_23
*474 FILLER_0_101_3
*475 FILLER_0_101_57
*476 FILLER_0_101_69
*477 FILLER_0_102_15
*478 FILLER_0_102_27
*479 FILLER_0_102_29
*480 FILLER_0_102_3
*481 FILLER_0_102_60
*482 FILLER_0_102_72
*483 FILLER_0_102_80
*484 FILLER_0_103_15
*485 FILLER_0_103_23
*486 FILLER_0_103_3
*487 FILLER_0_103_57
*488 FILLER_0_103_69
*489 FILLER_0_104_3
*490 FILLER_0_104_35
*491 FILLER_0_104_59
*492 FILLER_0_104_71
*493 FILLER_0_104_79
*494 FILLER_0_105_15
*495 FILLER_0_105_23
*496 FILLER_0_105_3
*497 FILLER_0_105_57
*498 FILLER_0_105_69
*499 FILLER_0_106_3
*500 FILLER_0_106_49
*501 FILLER_0_106_55
*502 FILLER_0_106_59
*503 FILLER_0_106_7
*504 FILLER_0_106_71
*505 FILLER_0_106_79
*506 FILLER_0_107_15
*507 FILLER_0_107_23
*508 FILLER_0_107_3
*509 FILLER_0_107_57
*510 FILLER_0_108_15
*511 FILLER_0_108_29
*512 FILLER_0_108_3
*513 FILLER_0_108_35
*514 FILLER_0_108_59
*515 FILLER_0_108_71
*516 FILLER_0_108_79
*517 FILLER_0_109_15
*518 FILLER_0_109_23
*519 FILLER_0_109_3
*520 FILLER_0_109_57
*521 FILLER_0_109_69
*522 FILLER_0_10_15
*523 FILLER_0_10_27
*524 FILLER_0_10_29
*525 FILLER_0_10_3
*526 FILLER_0_10_41
*527 FILLER_0_10_53
*528 FILLER_0_10_65
*529 FILLER_0_10_77
*530 FILLER_0_110_15
*531 FILLER_0_110_29
*532 FILLER_0_110_3
*533 FILLER_0_110_33
*534 FILLER_0_110_59
*535 FILLER_0_110_71
*536 FILLER_0_110_79
*537 FILLER_0_111_11
*538 FILLER_0_111_23
*539 FILLER_0_111_3
*540 FILLER_0_111_63
*541 FILLER_0_111_67
*542 FILLER_0_111_79
*543 FILLER_0_112_11
*544 FILLER_0_112_3
*545 FILLER_0_112_35
*546 FILLER_0_112_70
*547 FILLER_0_112_74
*548 FILLER_0_112_80
*549 FILLER_0_113_15
*550 FILLER_0_113_3
*551 FILLER_0_113_57
*552 FILLER_0_113_69
*553 FILLER_0_114_15
*554 FILLER_0_114_29
*555 FILLER_0_114_3
*556 FILLER_0_114_33
*557 FILLER_0_114_60
*558 FILLER_0_114_72
*559 FILLER_0_114_80
*560 FILLER_0_115_11
*561 FILLER_0_115_3
*562 FILLER_0_115_77
*563 FILLER_0_116_15
*564 FILLER_0_116_29
*565 FILLER_0_116_3
*566 FILLER_0_116_60
*567 FILLER_0_116_72
*568 FILLER_0_116_80
*569 FILLER_0_117_15
*570 FILLER_0_117_23
*571 FILLER_0_117_3
*572 FILLER_0_117_57
*573 FILLER_0_117_69
*574 FILLER_0_118_15
*575 FILLER_0_118_29
*576 FILLER_0_118_3
*577 FILLER_0_118_60
*578 FILLER_0_118_72
*579 FILLER_0_118_80
*580 FILLER_0_119_15
*581 FILLER_0_119_23
*582 FILLER_0_119_3
*583 FILLER_0_119_57
*584 FILLER_0_119_69
*585 FILLER_0_11_15
*586 FILLER_0_11_23
*587 FILLER_0_11_3
*588 FILLER_0_11_63
*589 FILLER_0_11_75
*590 FILLER_0_120_15
*591 FILLER_0_120_29
*592 FILLER_0_120_3
*593 FILLER_0_120_35
*594 FILLER_0_120_66
*595 FILLER_0_120_78
*596 FILLER_0_121_15
*597 FILLER_0_121_21
*598 FILLER_0_121_29
*599 FILLER_0_121_3
*600 FILLER_0_121_57
*601 FILLER_0_121_69
*602 FILLER_0_122_15
*603 FILLER_0_122_29
*604 FILLER_0_122_3
*605 FILLER_0_122_35
*606 FILLER_0_122_59
*607 FILLER_0_122_71
*608 FILLER_0_122_79
*609 FILLER_0_123_15
*610 FILLER_0_123_23
*611 FILLER_0_123_3
*612 FILLER_0_123_57
*613 FILLER_0_123_69
*614 FILLER_0_124_15
*615 FILLER_0_124_29
*616 FILLER_0_124_3
*617 FILLER_0_124_33
*618 FILLER_0_124_80
*619 FILLER_0_125_15
*620 FILLER_0_125_23
*621 FILLER_0_125_3
*622 FILLER_0_125_57
*623 FILLER_0_125_69
*624 FILLER_0_126_15
*625 FILLER_0_126_27
*626 FILLER_0_126_29
*627 FILLER_0_126_3
*628 FILLER_0_126_41
*629 FILLER_0_126_53
*630 FILLER_0_126_65
*631 FILLER_0_126_77
*632 FILLER_0_127_15
*633 FILLER_0_127_27
*634 FILLER_0_127_3
*635 FILLER_0_127_39
*636 FILLER_0_127_51
*637 FILLER_0_127_55
*638 FILLER_0_127_57
*639 FILLER_0_127_69
*640 FILLER_0_128_15
*641 FILLER_0_128_27
*642 FILLER_0_128_29
*643 FILLER_0_128_3
*644 FILLER_0_128_41
*645 FILLER_0_128_53
*646 FILLER_0_128_65
*647 FILLER_0_128_77
*648 FILLER_0_129_15
*649 FILLER_0_129_27
*650 FILLER_0_129_3
*651 FILLER_0_129_39
*652 FILLER_0_129_51
*653 FILLER_0_129_55
*654 FILLER_0_129_57
*655 FILLER_0_129_69
*656 FILLER_0_12_15
*657 FILLER_0_12_23
*658 FILLER_0_12_27
*659 FILLER_0_12_29
*660 FILLER_0_12_3
*661 FILLER_0_12_69
*662 FILLER_0_12_73
*663 FILLER_0_130_15
*664 FILLER_0_130_27
*665 FILLER_0_130_29
*666 FILLER_0_130_3
*667 FILLER_0_130_41
*668 FILLER_0_130_53
*669 FILLER_0_130_65
*670 FILLER_0_130_77
*671 FILLER_0_131_15
*672 FILLER_0_131_27
*673 FILLER_0_131_3
*674 FILLER_0_131_39
*675 FILLER_0_131_51
*676 FILLER_0_131_55
*677 FILLER_0_131_57
*678 FILLER_0_131_69
*679 FILLER_0_132_15
*680 FILLER_0_132_27
*681 FILLER_0_132_29
*682 FILLER_0_132_3
*683 FILLER_0_132_41
*684 FILLER_0_132_53
*685 FILLER_0_132_65
*686 FILLER_0_132_77
*687 FILLER_0_133_15
*688 FILLER_0_133_27
*689 FILLER_0_133_3
*690 FILLER_0_133_39
*691 FILLER_0_133_51
*692 FILLER_0_133_55
*693 FILLER_0_133_57
*694 FILLER_0_133_69
*695 FILLER_0_134_15
*696 FILLER_0_134_27
*697 FILLER_0_134_29
*698 FILLER_0_134_3
*699 FILLER_0_134_41
*700 FILLER_0_134_53
*701 FILLER_0_134_65
*702 FILLER_0_134_77
*703 FILLER_0_135_15
*704 FILLER_0_135_27
*705 FILLER_0_135_3
*706 FILLER_0_135_39
*707 FILLER_0_135_51
*708 FILLER_0_135_55
*709 FILLER_0_135_57
*710 FILLER_0_135_69
*711 FILLER_0_136_15
*712 FILLER_0_136_27
*713 FILLER_0_136_29
*714 FILLER_0_136_3
*715 FILLER_0_136_41
*716 FILLER_0_136_53
*717 FILLER_0_136_65
*718 FILLER_0_136_77
*719 FILLER_0_137_15
*720 FILLER_0_137_27
*721 FILLER_0_137_3
*722 FILLER_0_137_39
*723 FILLER_0_137_51
*724 FILLER_0_137_55
*725 FILLER_0_137_57
*726 FILLER_0_137_69
*727 FILLER_0_138_15
*728 FILLER_0_138_27
*729 FILLER_0_138_29
*730 FILLER_0_138_3
*731 FILLER_0_138_41
*732 FILLER_0_138_53
*733 FILLER_0_138_57
*734 FILLER_0_138_69
*735 FILLER_0_13_15
*736 FILLER_0_13_23
*737 FILLER_0_13_3
*738 FILLER_0_13_57
*739 FILLER_0_13_69
*740 FILLER_0_14_29
*741 FILLER_0_14_3
*742 FILLER_0_14_35
*743 FILLER_0_14_59
*744 FILLER_0_14_7
*745 FILLER_0_14_71
*746 FILLER_0_14_79
*747 FILLER_0_15_11
*748 FILLER_0_15_3
*749 FILLER_0_15_57
*750 FILLER_0_15_69
*751 FILLER_0_16_15
*752 FILLER_0_16_23
*753 FILLER_0_16_27
*754 FILLER_0_16_29
*755 FILLER_0_16_3
*756 FILLER_0_16_60
*757 FILLER_0_16_72
*758 FILLER_0_16_80
*759 FILLER_0_17_15
*760 FILLER_0_17_23
*761 FILLER_0_17_3
*762 FILLER_0_17_57
*763 FILLER_0_17_69
*764 FILLER_0_18_15
*765 FILLER_0_18_29
*766 FILLER_0_18_3
*767 FILLER_0_18_35
*768 FILLER_0_18_59
*769 FILLER_0_18_71
*770 FILLER_0_18_79
*771 FILLER_0_19_15
*772 FILLER_0_19_23
*773 FILLER_0_19_3
*774 FILLER_0_19_57
*775 FILLER_0_19_69
*776 FILLER_0_1_15
*777 FILLER_0_1_27
*778 FILLER_0_1_3
*779 FILLER_0_1_39
*780 FILLER_0_1_51
*781 FILLER_0_1_55
*782 FILLER_0_1_57
*783 FILLER_0_1_69
*784 FILLER_0_20_15
*785 FILLER_0_20_29
*786 FILLER_0_20_3
*787 FILLER_0_20_58
*788 FILLER_0_20_70
*789 FILLER_0_20_78
*790 FILLER_0_21_15
*791 FILLER_0_21_23
*792 FILLER_0_21_3
*793 FILLER_0_21_57
*794 FILLER_0_21_69
*795 FILLER_0_22_15
*796 FILLER_0_22_27
*797 FILLER_0_22_29
*798 FILLER_0_22_3
*799 FILLER_0_22_60
*800 FILLER_0_22_72
*801 FILLER_0_22_80
*802 FILLER_0_23_15
*803 FILLER_0_23_23
*804 FILLER_0_23_3
*805 FILLER_0_23_57
*806 FILLER_0_23_69
*807 FILLER_0_24_29
*808 FILLER_0_24_3
*809 FILLER_0_24_7
*810 FILLER_0_24_71
*811 FILLER_0_24_75
*812 FILLER_0_25_11
*813 FILLER_0_25_3
*814 FILLER_0_25_68
*815 FILLER_0_25_72
*816 FILLER_0_25_80
*817 FILLER_0_26_15
*818 FILLER_0_26_29
*819 FILLER_0_26_3
*820 FILLER_0_26_66
*821 FILLER_0_26_70
*822 FILLER_0_26_78
*823 FILLER_0_27_15
*824 FILLER_0_27_23
*825 FILLER_0_27_3
*826 FILLER_0_27_57
*827 FILLER_0_27_69
*828 FILLER_0_28_15
*829 FILLER_0_28_27
*830 FILLER_0_28_29
*831 FILLER_0_28_3
*832 FILLER_0_28_35
*833 FILLER_0_28_59
*834 FILLER_0_28_71
*835 FILLER_0_28_79
*836 FILLER_0_29_15
*837 FILLER_0_29_23
*838 FILLER_0_29_3
*839 FILLER_0_29_57
*840 FILLER_0_29_69
*841 FILLER_0_2_15
*842 FILLER_0_2_27
*843 FILLER_0_2_29
*844 FILLER_0_2_3
*845 FILLER_0_2_41
*846 FILLER_0_2_53
*847 FILLER_0_2_65
*848 FILLER_0_2_77
*849 FILLER_0_30_15
*850 FILLER_0_30_29
*851 FILLER_0_30_3
*852 FILLER_0_30_58
*853 FILLER_0_30_70
*854 FILLER_0_30_78
*855 FILLER_0_31_15
*856 FILLER_0_31_23
*857 FILLER_0_31_3
*858 FILLER_0_31_57
*859 FILLER_0_31_69
*860 FILLER_0_32_15
*861 FILLER_0_32_29
*862 FILLER_0_32_3
*863 FILLER_0_32_58
*864 FILLER_0_32_70
*865 FILLER_0_32_78
*866 FILLER_0_33_15
*867 FILLER_0_33_23
*868 FILLER_0_33_3
*869 FILLER_0_33_57
*870 FILLER_0_33_69
*871 FILLER_0_34_15
*872 FILLER_0_34_29
*873 FILLER_0_34_3
*874 FILLER_0_34_35
*875 FILLER_0_34_59
*876 FILLER_0_34_71
*877 FILLER_0_34_79
*878 FILLER_0_35_15
*879 FILLER_0_35_23
*880 FILLER_0_35_3
*881 FILLER_0_35_57
*882 FILLER_0_35_69
*883 FILLER_0_36_15
*884 FILLER_0_36_29
*885 FILLER_0_36_3
*886 FILLER_0_36_33
*887 FILLER_0_36_60
*888 FILLER_0_36_72
*889 FILLER_0_36_80
*890 FILLER_0_37_15
*891 FILLER_0_37_3
*892 FILLER_0_37_57
*893 FILLER_0_37_69
*894 FILLER_0_38_3
*895 FILLER_0_38_58
*896 FILLER_0_38_70
*897 FILLER_0_38_78
*898 FILLER_0_39_15
*899 FILLER_0_39_3
*900 FILLER_0_39_57
*901 FILLER_0_39_69
*902 FILLER_0_3_15
*903 FILLER_0_3_27
*904 FILLER_0_3_3
*905 FILLER_0_3_39
*906 FILLER_0_3_51
*907 FILLER_0_3_55
*908 FILLER_0_3_57
*909 FILLER_0_3_69
*910 FILLER_0_40_29
*911 FILLER_0_40_3
*912 FILLER_0_40_33
*913 FILLER_0_40_68
*914 FILLER_0_40_72
*915 FILLER_0_40_80
*916 FILLER_0_41_17
*917 FILLER_0_41_3
*918 FILLER_0_41_57
*919 FILLER_0_41_69
*920 FILLER_0_42_15
*921 FILLER_0_42_27
*922 FILLER_0_42_29
*923 FILLER_0_42_3
*924 FILLER_0_42_33
*925 FILLER_0_42_41
*926 FILLER_0_42_53
*927 FILLER_0_43_15
*928 FILLER_0_43_23
*929 FILLER_0_43_3
*930 FILLER_0_43_57
*931 FILLER_0_43_69
*932 FILLER_0_44_15
*933 FILLER_0_44_29
*934 FILLER_0_44_3
*935 FILLER_0_44_35
*936 FILLER_0_44_59
*937 FILLER_0_44_71
*938 FILLER_0_44_79
*939 FILLER_0_45_15
*940 FILLER_0_45_23
*941 FILLER_0_45_3
*942 FILLER_0_45_57
*943 FILLER_0_45_69
*944 FILLER_0_46_15
*945 FILLER_0_46_29
*946 FILLER_0_46_3
*947 FILLER_0_46_60
*948 FILLER_0_46_72
*949 FILLER_0_46_80
*950 FILLER_0_47_15
*951 FILLER_0_47_23
*952 FILLER_0_47_3
*953 FILLER_0_47_57
*954 FILLER_0_47_69
*955 FILLER_0_48_15
*956 FILLER_0_48_29
*957 FILLER_0_48_3
*958 FILLER_0_48_58
*959 FILLER_0_48_70
*960 FILLER_0_48_78
*961 FILLER_0_49_15
*962 FILLER_0_49_23
*963 FILLER_0_49_3
*964 FILLER_0_49_57
*965 FILLER_0_49_69
*966 FILLER_0_4_15
*967 FILLER_0_4_27
*968 FILLER_0_4_29
*969 FILLER_0_4_3
*970 FILLER_0_4_41
*971 FILLER_0_4_53
*972 FILLER_0_4_65
*973 FILLER_0_4_77
*974 FILLER_0_50_15
*975 FILLER_0_50_29
*976 FILLER_0_50_3
*977 FILLER_0_50_58
*978 FILLER_0_50_70
*979 FILLER_0_50_78
*980 FILLER_0_51_15
*981 FILLER_0_51_23
*982 FILLER_0_51_3
*983 FILLER_0_51_57
*984 FILLER_0_51_69
*985 FILLER_0_52_29
*986 FILLER_0_52_3
*987 FILLER_0_52_60
*988 FILLER_0_52_7
*989 FILLER_0_52_72
*990 FILLER_0_52_80
*991 FILLER_0_53_11
*992 FILLER_0_53_3
*993 FILLER_0_53_57
*994 FILLER_0_53_69
*995 FILLER_0_54_15
*996 FILLER_0_54_3
*997 FILLER_0_54_58
*998 FILLER_0_54_70
*999 FILLER_0_54_78
*1000 FILLER_0_55_15
*1001 FILLER_0_55_23
*1002 FILLER_0_55_3
*1003 FILLER_0_55_57
*1004 FILLER_0_55_69
*1005 FILLER_0_56_15
*1006 FILLER_0_56_29
*1007 FILLER_0_56_3
*1008 FILLER_0_56_35
*1009 FILLER_0_56_65
*1010 FILLER_0_56_69
*1011 FILLER_0_57_15
*1012 FILLER_0_57_23
*1013 FILLER_0_57_3
*1014 FILLER_0_57_68
*1015 FILLER_0_57_72
*1016 FILLER_0_57_80
*1017 FILLER_0_58_15
*1018 FILLER_0_58_29
*1019 FILLER_0_58_3
*1020 FILLER_0_58_35
*1021 FILLER_0_58_70
*1022 FILLER_0_58_74
*1023 FILLER_0_58_80
*1024 FILLER_0_59_15
*1025 FILLER_0_59_23
*1026 FILLER_0_59_3
*1027 FILLER_0_59_57
*1028 FILLER_0_59_69
*1029 FILLER_0_5_15
*1030 FILLER_0_5_27
*1031 FILLER_0_5_3
*1032 FILLER_0_5_39
*1033 FILLER_0_5_51
*1034 FILLER_0_5_55
*1035 FILLER_0_5_57
*1036 FILLER_0_5_69
*1037 FILLER_0_60_15
*1038 FILLER_0_60_29
*1039 FILLER_0_60_3
*1040 FILLER_0_60_60
*1041 FILLER_0_60_72
*1042 FILLER_0_60_80
*1043 FILLER_0_61_15
*1044 FILLER_0_61_23
*1045 FILLER_0_61_3
*1046 FILLER_0_61_57
*1047 FILLER_0_61_69
*1048 FILLER_0_62_29
*1049 FILLER_0_62_3
*1050 FILLER_0_62_60
*1051 FILLER_0_62_7
*1052 FILLER_0_62_72
*1053 FILLER_0_62_80
*1054 FILLER_0_63_11
*1055 FILLER_0_63_3
*1056 FILLER_0_63_57
*1057 FILLER_0_63_69
*1058 FILLER_0_64_3
*1059 FILLER_0_64_58
*1060 FILLER_0_64_70
*1061 FILLER_0_64_78
*1062 FILLER_0_65_15
*1063 FILLER_0_65_23
*1064 FILLER_0_65_3
*1065 FILLER_0_65_57
*1066 FILLER_0_65_69
*1067 FILLER_0_66_15
*1068 FILLER_0_66_18
*1069 FILLER_0_66_29
*1070 FILLER_0_66_3
*1071 FILLER_0_66_57
*1072 FILLER_0_66_69
*1073 FILLER_0_67_23
*1074 FILLER_0_67_3
*1075 FILLER_0_67_57
*1076 FILLER_0_67_69
*1077 FILLER_0_67_9
*1078 FILLER_0_68_3
*1079 FILLER_0_68_35
*1080 FILLER_0_68_7
*1081 FILLER_0_68_80
*1082 FILLER_0_69_15
*1083 FILLER_0_69_23
*1084 FILLER_0_69_3
*1085 FILLER_0_69_73
*1086 FILLER_0_6_15
*1087 FILLER_0_6_27
*1088 FILLER_0_6_29
*1089 FILLER_0_6_3
*1090 FILLER_0_6_41
*1091 FILLER_0_6_53
*1092 FILLER_0_6_65
*1093 FILLER_0_6_77
*1094 FILLER_0_70_15
*1095 FILLER_0_70_27
*1096 FILLER_0_70_29
*1097 FILLER_0_70_3
*1098 FILLER_0_70_33
*1099 FILLER_0_70_68
*1100 FILLER_0_70_72
*1101 FILLER_0_70_80
*1102 FILLER_0_71_15
*1103 FILLER_0_71_23
*1104 FILLER_0_71_3
*1105 FILLER_0_71_57
*1106 FILLER_0_71_69
*1107 FILLER_0_72_15
*1108 FILLER_0_72_29
*1109 FILLER_0_72_3
*1110 FILLER_0_72_35
*1111 FILLER_0_72_59
*1112 FILLER_0_72_71
*1113 FILLER_0_72_79
*1114 FILLER_0_73_15
*1115 FILLER_0_73_23
*1116 FILLER_0_73_3
*1117 FILLER_0_73_57
*1118 FILLER_0_73_69
*1119 FILLER_0_74_15
*1120 FILLER_0_74_25
*1121 FILLER_0_74_29
*1122 FILLER_0_74_3
*1123 FILLER_0_74_33
*1124 FILLER_0_74_45
*1125 FILLER_0_74_53
*1126 FILLER_0_74_59
*1127 FILLER_0_74_71
*1128 FILLER_0_74_79
*1129 FILLER_0_75_15
*1130 FILLER_0_75_23
*1131 FILLER_0_75_3
*1132 FILLER_0_75_57
*1133 FILLER_0_76_3
*1134 FILLER_0_76_35
*1135 FILLER_0_76_59
*1136 FILLER_0_76_7
*1137 FILLER_0_76_71
*1138 FILLER_0_76_79
*1139 FILLER_0_77_11
*1140 FILLER_0_77_3
*1141 FILLER_0_77_57
*1142 FILLER_0_77_69
*1143 FILLER_0_78_15
*1144 FILLER_0_78_29
*1145 FILLER_0_78_3
*1146 FILLER_0_78_35
*1147 FILLER_0_78_59
*1148 FILLER_0_78_71
*1149 FILLER_0_78_79
*1150 FILLER_0_79_15
*1151 FILLER_0_79_23
*1152 FILLER_0_79_3
*1153 FILLER_0_79_68
*1154 FILLER_0_79_72
*1155 FILLER_0_79_80
*1156 FILLER_0_7_15
*1157 FILLER_0_7_27
*1158 FILLER_0_7_3
*1159 FILLER_0_7_39
*1160 FILLER_0_7_51
*1161 FILLER_0_7_55
*1162 FILLER_0_7_57
*1163 FILLER_0_7_69
*1164 FILLER_0_80_15
*1165 FILLER_0_80_29
*1166 FILLER_0_80_3
*1167 FILLER_0_80_69
*1168 FILLER_0_80_73
*1169 FILLER_0_81_15
*1170 FILLER_0_81_23
*1171 FILLER_0_81_3
*1172 FILLER_0_81_57
*1173 FILLER_0_81_69
*1174 FILLER_0_82_29
*1175 FILLER_0_82_3
*1176 FILLER_0_82_35
*1177 FILLER_0_82_59
*1178 FILLER_0_82_7
*1179 FILLER_0_82_71
*1180 FILLER_0_82_79
*1181 FILLER_0_83_15
*1182 FILLER_0_83_23
*1183 FILLER_0_83_3
*1184 FILLER_0_83_57
*1185 FILLER_0_83_69
*1186 FILLER_0_84_3
*1187 FILLER_0_84_33
*1188 FILLER_0_84_64
*1189 FILLER_0_84_68
*1190 FILLER_0_84_80
*1191 FILLER_0_85_15
*1192 FILLER_0_85_23
*1193 FILLER_0_85_3
*1194 FILLER_0_85_57
*1195 FILLER_0_85_69
*1196 FILLER_0_86_15
*1197 FILLER_0_86_29
*1198 FILLER_0_86_3
*1199 FILLER_0_86_35
*1200 FILLER_0_86_59
*1201 FILLER_0_86_71
*1202 FILLER_0_86_79
*1203 FILLER_0_87_15
*1204 FILLER_0_87_23
*1205 FILLER_0_87_3
*1206 FILLER_0_87_57
*1207 FILLER_0_87_69
*1208 FILLER_0_88_15
*1209 FILLER_0_88_29
*1210 FILLER_0_88_3
*1211 FILLER_0_88_58
*1212 FILLER_0_88_70
*1213 FILLER_0_88_78
*1214 FILLER_0_89_15
*1215 FILLER_0_89_23
*1216 FILLER_0_89_3
*1217 FILLER_0_89_57
*1218 FILLER_0_89_69
*1219 FILLER_0_8_15
*1220 FILLER_0_8_27
*1221 FILLER_0_8_29
*1222 FILLER_0_8_3
*1223 FILLER_0_8_41
*1224 FILLER_0_8_53
*1225 FILLER_0_8_65
*1226 FILLER_0_8_77
*1227 FILLER_0_90_15
*1228 FILLER_0_90_29
*1229 FILLER_0_90_3
*1230 FILLER_0_90_33
*1231 FILLER_0_90_57
*1232 FILLER_0_90_69
*1233 FILLER_0_91_15
*1234 FILLER_0_91_23
*1235 FILLER_0_91_3
*1236 FILLER_0_91_57
*1237 FILLER_0_91_69
*1238 FILLER_0_92_15
*1239 FILLER_0_92_3
*1240 FILLER_0_92_33
*1241 FILLER_0_92_59
*1242 FILLER_0_92_71
*1243 FILLER_0_92_79
*1244 FILLER_0_93_15
*1245 FILLER_0_93_23
*1246 FILLER_0_93_3
*1247 FILLER_0_93_57
*1248 FILLER_0_93_69
*1249 FILLER_0_94_15
*1250 FILLER_0_94_29
*1251 FILLER_0_94_3
*1252 FILLER_0_94_35
*1253 FILLER_0_94_59
*1254 FILLER_0_94_71
*1255 FILLER_0_94_79
*1256 FILLER_0_95_15
*1257 FILLER_0_95_23
*1258 FILLER_0_95_3
*1259 FILLER_0_95_57
*1260 FILLER_0_95_69
*1261 FILLER_0_96_15
*1262 FILLER_0_96_3
*1263 FILLER_0_96_35
*1264 FILLER_0_96_59
*1265 FILLER_0_96_71
*1266 FILLER_0_96_79
*1267 FILLER_0_97_15
*1268 FILLER_0_97_23
*1269 FILLER_0_97_3
*1270 FILLER_0_97_57
*1271 FILLER_0_97_69
*1272 FILLER_0_98_3
*1273 FILLER_0_98_35
*1274 FILLER_0_98_71
*1275 FILLER_0_98_75
*1276 FILLER_0_99_15
*1277 FILLER_0_99_23
*1278 FILLER_0_99_3
*1279 FILLER_0_99_57
*1280 FILLER_0_99_69
*1281 FILLER_0_9_15
*1282 FILLER_0_9_27
*1283 FILLER_0_9_3
*1284 FILLER_0_9_39
*1285 FILLER_0_9_51
*1286 FILLER_0_9_55
*1287 FILLER_0_9_57
*1288 FILLER_0_9_69
*1289 PHY_0
*1290 PHY_1
*1291 PHY_10
*1292 PHY_100
*1293 PHY_101
*1294 PHY_102
*1295 PHY_103
*1296 PHY_104
*1297 PHY_105
*1298 PHY_106
*1299 PHY_107
*1300 PHY_108
*1301 PHY_109
*1302 PHY_11
*1303 PHY_110
*1304 PHY_111
*1305 PHY_112
*1306 PHY_113
*1307 PHY_114
*1308 PHY_115
*1309 PHY_116
*1310 PHY_117
*1311 PHY_118
*1312 PHY_119
*1313 PHY_12
*1314 PHY_120
*1315 PHY_121
*1316 PHY_122
*1317 PHY_123
*1318 PHY_124
*1319 PHY_125
*1320 PHY_126
*1321 PHY_127
*1322 PHY_128
*1323 PHY_129
*1324 PHY_13
*1325 PHY_130
*1326 PHY_131
*1327 PHY_132
*1328 PHY_133
*1329 PHY_134
*1330 PHY_135
*1331 PHY_136
*1332 PHY_137
*1333 PHY_138
*1334 PHY_139
*1335 PHY_14
*1336 PHY_140
*1337 PHY_141
*1338 PHY_142
*1339 PHY_143
*1340 PHY_144
*1341 PHY_145
*1342 PHY_146
*1343 PHY_147
*1344 PHY_148
*1345 PHY_149
*1346 PHY_15
*1347 PHY_150
*1348 PHY_151
*1349 PHY_152
*1350 PHY_153
*1351 PHY_154
*1352 PHY_155
*1353 PHY_156
*1354 PHY_157
*1355 PHY_158
*1356 PHY_159
*1357 PHY_16
*1358 PHY_160
*1359 PHY_161
*1360 PHY_162
*1361 PHY_163
*1362 PHY_164
*1363 PHY_165
*1364 PHY_166
*1365 PHY_167
*1366 PHY_168
*1367 PHY_169
*1368 PHY_17
*1369 PHY_170
*1370 PHY_171
*1371 PHY_172
*1372 PHY_173
*1373 PHY_174
*1374 PHY_175
*1375 PHY_176
*1376 PHY_177
*1377 PHY_178
*1378 PHY_179
*1379 PHY_18
*1380 PHY_180
*1381 PHY_181
*1382 PHY_182
*1383 PHY_183
*1384 PHY_184
*1385 PHY_185
*1386 PHY_186
*1387 PHY_187
*1388 PHY_188
*1389 PHY_189
*1390 PHY_19
*1391 PHY_190
*1392 PHY_191
*1393 PHY_192
*1394 PHY_193
*1395 PHY_194
*1396 PHY_195
*1397 PHY_196
*1398 PHY_197
*1399 PHY_198
*1400 PHY_199
*1401 PHY_2
*1402 PHY_20
*1403 PHY_200
*1404 PHY_201
*1405 PHY_202
*1406 PHY_203
*1407 PHY_204
*1408 PHY_205
*1409 PHY_206
*1410 PHY_207
*1411 PHY_208
*1412 PHY_209
*1413 PHY_21
*1414 PHY_210
*1415 PHY_211
*1416 PHY_212
*1417 PHY_213
*1418 PHY_214
*1419 PHY_215
*1420 PHY_216
*1421 PHY_217
*1422 PHY_218
*1423 PHY_219
*1424 PHY_22
*1425 PHY_220
*1426 PHY_221
*1427 PHY_222
*1428 PHY_223
*1429 PHY_224
*1430 PHY_225
*1431 PHY_226
*1432 PHY_227
*1433 PHY_228
*1434 PHY_229
*1435 PHY_23
*1436 PHY_230
*1437 PHY_231
*1438 PHY_232
*1439 PHY_233
*1440 PHY_234
*1441 PHY_235
*1442 PHY_236
*1443 PHY_237
*1444 PHY_238
*1445 PHY_239
*1446 PHY_24
*1447 PHY_240
*1448 PHY_241
*1449 PHY_242
*1450 PHY_243
*1451 PHY_244
*1452 PHY_245
*1453 PHY_246
*1454 PHY_247
*1455 PHY_248
*1456 PHY_249
*1457 PHY_25
*1458 PHY_250
*1459 PHY_251
*1460 PHY_252
*1461 PHY_253
*1462 PHY_254
*1463 PHY_255
*1464 PHY_256
*1465 PHY_257
*1466 PHY_258
*1467 PHY_259
*1468 PHY_26
*1469 PHY_260
*1470 PHY_261
*1471 PHY_262
*1472 PHY_263
*1473 PHY_264
*1474 PHY_265
*1475 PHY_266
*1476 PHY_267
*1477 PHY_268
*1478 PHY_269
*1479 PHY_27
*1480 PHY_270
*1481 PHY_271
*1482 PHY_272
*1483 PHY_273
*1484 PHY_274
*1485 PHY_275
*1486 PHY_276
*1487 PHY_277
*1488 PHY_28
*1489 PHY_29
*1490 PHY_3
*1491 PHY_30
*1492 PHY_31
*1493 PHY_32
*1494 PHY_33
*1495 PHY_34
*1496 PHY_35
*1497 PHY_36
*1498 PHY_37
*1499 PHY_38
*1500 PHY_39
*1501 PHY_4
*1502 PHY_40
*1503 PHY_41
*1504 PHY_42
*1505 PHY_43
*1506 PHY_44
*1507 PHY_45
*1508 PHY_46
*1509 PHY_47
*1510 PHY_48
*1511 PHY_49
*1512 PHY_5
*1513 PHY_50
*1514 PHY_51
*1515 PHY_52
*1516 PHY_53
*1517 PHY_54
*1518 PHY_55
*1519 PHY_56
*1520 PHY_57
*1521 PHY_58
*1522 PHY_59
*1523 PHY_6
*1524 PHY_60
*1525 PHY_61
*1526 PHY_62
*1527 PHY_63
*1528 PHY_64
*1529 PHY_65
*1530 PHY_66
*1531 PHY_67
*1532 PHY_68
*1533 PHY_69
*1534 PHY_7
*1535 PHY_70
*1536 PHY_71
*1537 PHY_72
*1538 PHY_73
*1539 PHY_74
*1540 PHY_75
*1541 PHY_76
*1542 PHY_77
*1543 PHY_78
*1544 PHY_79
*1545 PHY_8
*1546 PHY_80
*1547 PHY_81
*1548 PHY_82
*1549 PHY_83
*1550 PHY_84
*1551 PHY_85
*1552 PHY_86
*1553 PHY_87
*1554 PHY_88
*1555 PHY_89
*1556 PHY_9
*1557 PHY_90
*1558 PHY_91
*1559 PHY_92
*1560 PHY_93
*1561 PHY_94
*1562 PHY_95
*1563 PHY_96
*1564 PHY_97
*1565 PHY_98
*1566 PHY_99
*1567 TAP_278
*1568 TAP_279
*1569 TAP_280
*1570 TAP_281
*1571 TAP_282
*1572 TAP_283
*1573 TAP_284
*1574 TAP_285
*1575 TAP_286
*1576 TAP_287
*1577 TAP_288
*1578 TAP_289
*1579 TAP_290
*1580 TAP_291
*1581 TAP_292
*1582 TAP_293
*1583 TAP_294
*1584 TAP_295
*1585 TAP_296
*1586 TAP_297
*1587 TAP_298
*1588 TAP_299
*1589 TAP_300
*1590 TAP_301
*1591 TAP_302
*1592 TAP_303
*1593 TAP_304
*1594 TAP_305
*1595 TAP_306
*1596 TAP_307
*1597 TAP_308
*1598 TAP_309
*1599 TAP_310
*1600 TAP_311
*1601 TAP_312
*1602 TAP_313
*1603 TAP_314
*1604 TAP_315
*1605 TAP_316
*1606 TAP_317
*1607 TAP_318
*1608 TAP_319
*1609 TAP_320
*1610 TAP_321
*1611 TAP_322
*1612 TAP_323
*1613 TAP_324
*1614 TAP_325
*1615 TAP_326
*1616 TAP_327
*1617 TAP_328
*1618 TAP_329
*1619 TAP_330
*1620 TAP_331
*1621 TAP_332
*1622 TAP_333
*1623 TAP_334
*1624 TAP_335
*1625 TAP_336
*1626 TAP_337
*1627 TAP_338
*1628 TAP_339
*1629 TAP_340
*1630 TAP_341
*1631 TAP_342
*1632 TAP_343
*1633 TAP_344
*1634 TAP_345
*1635 TAP_346
*1636 TAP_347
*1637 TAP_348
*1638 TAP_349
*1639 TAP_350
*1640 TAP_351
*1641 TAP_352
*1642 TAP_353
*1643 TAP_354
*1644 TAP_355
*1645 TAP_356
*1646 TAP_357
*1647 TAP_358
*1648 TAP_359
*1649 TAP_360
*1650 TAP_361
*1651 TAP_362
*1652 TAP_363
*1653 TAP_364
*1654 TAP_365
*1655 TAP_366
*1656 TAP_367
*1657 TAP_368
*1658 TAP_369
*1659 TAP_370
*1660 TAP_371
*1661 TAP_372
*1662 TAP_373
*1663 TAP_374
*1664 TAP_375
*1665 TAP_376
*1666 TAP_377
*1667 TAP_378
*1668 TAP_379
*1669 TAP_380
*1670 TAP_381
*1671 TAP_382
*1672 TAP_383
*1673 TAP_384
*1674 TAP_385
*1675 TAP_386
*1676 TAP_387
*1677 TAP_388
*1678 TAP_389
*1679 TAP_390
*1680 TAP_391
*1681 TAP_392
*1682 TAP_393
*1683 TAP_394
*1684 TAP_395
*1685 TAP_396
*1686 TAP_397
*1687 TAP_398
*1688 TAP_399
*1689 TAP_400
*1690 TAP_401
*1691 TAP_402
*1692 TAP_403
*1693 TAP_404
*1694 TAP_405
*1695 TAP_406
*1696 TAP_407
*1697 TAP_408
*1698 TAP_409
*1699 TAP_410
*1700 TAP_411
*1701 TAP_412
*1702 TAP_413
*1703 TAP_414
*1704 TAP_415
*1705 TAP_416
*1706 TAP_417
*1707 TAP_418
*1708 _116_
*1709 _117_
*1710 _118_
*1711 _119_
*1712 _120_
*1713 _121_
*1714 _122_
*1715 _123_
*1716 _124_
*1717 _125_
*1718 _126_
*1719 _127_
*1720 _128_
*1721 _129_
*1722 _130_
*1723 _131_
*1724 _132_
*1725 _133_
*1726 _134_
*1727 _135_
*1728 _136_
*1729 _137_
*1730 _138_
*1731 _139_
*1732 _140_
*1733 _141_
*1734 _142_
*1735 _143_
*1736 _144_
*1737 _145_
*1738 _146_
*1739 _147_
*1740 _148_
*1741 _149_
*1742 _150_
*1743 _151_
*1744 _152_
*1745 _153_
*1746 _154_
*1747 _155_
*1748 _156_
*1749 _157_
*1750 _158_
*1751 _159_
*1752 _160_
*1753 _161_
*1754 _162_
*1755 _163_
*1756 _164_
*1757 _165_
*1758 _166_
*1759 _167_
*1760 _168_
*1761 _169_
*1762 _170_
*1763 _171_
*1764 _172_
*1765 _173_
*1766 _174_
*1767 _175_
*1768 _176_
*1769 _177_
*1770 _178_
*1771 _179_
*1772 _180_
*1773 _181_
*1774 _182_
*1775 _183_
*1776 _184_
*1777 _185_
*1778 _186_
*1779 _187_
*1780 _188_
*1781 _189_
*1782 _190_
*1783 _191_
*1784 _192_
*1785 _193_
*1786 _194_
*1787 _195_
*1788 _196_
*1789 _197_
*1790 _198_
*1791 _199_
*1792 _200_
*1793 _201_
*1794 _202_
*1795 _203_
*1796 _204_
*1797 _205_
*1798 _206_
*1799 _207_
*1800 _208_
*1801 _209_
*1802 _210_
*1803 _211_
*1804 _212_
*1805 _213_
*1806 _214_
*1807 _215_
*1808 _216_
*1809 _217_
*1810 _218_
*1811 _219_
*1812 _220_
*1813 _221_
*1814 _222_
*1815 _223_
*1816 _224_
*1817 _225_
*1818 _226_
*1819 _227_
*1820 _228_
*1821 _229_
*1822 _230_
*1823 _231_
*1824 _232_
*1825 _233_
*1826 _234_
*1827 _235_
*1828 _236_
*1829 _237_
*1830 _238_
*1831 _239_
*1832 _240_
*1833 _241_
*1834 _242_
*1835 _243_
*1836 _244_
*1837 _245_
*1838 _246_
*1839 _247_
*1840 _248_
*1841 _249_
*1842 _250_
*1843 _251_
*1844 _252_
*1845 _253_
*1846 _254_
*1847 _255_
*1848 _256_
*1849 _257_
*1850 _258_
*1851 _259_
*1852 _260_
*1853 _261_
*1854 _262_
*1855 _263_
*1856 _264_
*1857 _265_
*1858 _266_
*1859 _267_
*1860 _268_
*1861 _269_
*1862 _270_
*1863 _271_
*1864 _272_
*1865 _273_
*1866 _274_
*1867 _275_
*1868 _276_
*1869 _277_
*1870 _278_
*1871 _279_
*1872 _280_
*1873 _281_
*1874 _282_
*1875 _283_
*1876 _284_
*1877 _285_
*1878 _286_
*1879 _287_
*1880 _288_
*1881 _289_
*1882 _290_
*1883 _291_
*1884 _292_
*1885 _293_
*1886 _294_
*1887 _295_
*1888 _296_
*1889 _297_
*1890 _298_
*1891 _299_
*1892 _300_
*1893 _301_
*1894 _302_
*1895 _303_
*1896 _304_
*1897 _305_
*1898 _306_
*1899 _307_
*1900 _308_
*1901 _309_
*1902 _310_
*1903 _311_
*1904 _312_
*1905 _313_
*1906 _314_
*1907 _315_
*1908 _316_
*1909 _317_
*1910 _318_
*1911 _319_
*1912 _320_
*1913 _321_
*1914 _322_
*1915 _323_
*1916 _324_
*1917 _325_
*1918 _326_
*1919 _327_
*1920 _328_
*1921 _329_
*1922 _330_
*1923 _331_
*1924 _332_
*1925 _333_
*1926 _334_
*1927 _335_
*1928 _336_
*1929 _337_
*1930 _338_
*1931 _339_
*1932 _340_
*1933 _341_
*1934 _342_
*1935 _343_
*1936 _344_
*1937 _345_
*1938 _346_
*1939 _347_
*1940 _348_
*1941 _349_
*1942 clkbuf_0_clk_i
*1943 clkbuf_3_0_0_clk_i
*1944 clkbuf_3_1_0_clk_i
*1945 clkbuf_3_2_0_clk_i
*1946 clkbuf_3_3_0_clk_i
*1947 clkbuf_3_4_0_clk_i
*1948 clkbuf_3_5_0_clk_i
*1949 clkbuf_3_6_0_clk_i
*1950 clkbuf_3_7_0_clk_i
*1951 clkbuf_4_0__f_clk_i
*1952 clkbuf_4_10__f_clk_i
*1953 clkbuf_4_11__f_clk_i
*1954 clkbuf_4_12__f_clk_i
*1955 clkbuf_4_13__f_clk_i
*1956 clkbuf_4_14__f_clk_i
*1957 clkbuf_4_15__f_clk_i
*1958 clkbuf_4_1__f_clk_i
*1959 clkbuf_4_2__f_clk_i
*1960 clkbuf_4_3__f_clk_i
*1961 clkbuf_4_4__f_clk_i
*1962 clkbuf_4_5__f_clk_i
*1963 clkbuf_4_6__f_clk_i
*1964 clkbuf_4_7__f_clk_i
*1965 clkbuf_4_8__f_clk_i
*1966 clkbuf_4_9__f_clk_i
*1967 fanout1
*1968 fanout10
*1969 fanout11
*1970 fanout12
*1971 fanout13
*1972 fanout14
*1973 fanout15
*1974 fanout16
*1975 fanout17
*1976 fanout18
*1977 fanout19
*1978 fanout2
*1979 fanout20
*1980 fanout21
*1981 fanout22
*1982 fanout23
*1983 fanout24
*1984 fanout25
*1985 fanout26
*1986 fanout27
*1987 fanout28
*1988 fanout29
*1989 fanout3
*1990 fanout30
*1991 fanout31
*1992 fanout32
*1993 fanout33
*1994 fanout34
*1995 fanout35
*1996 fanout36
*1997 fanout4
*1998 fanout5
*1999 fanout6
*2000 fanout7
*2001 fanout8
*2002 fanout9

*PORTS
busy_o O
clk_i I
mstream_i I
mstream_o[0] O
mstream_o[100] O
mstream_o[101] O
mstream_o[102] O
mstream_o[103] O
mstream_o[104] O
mstream_o[105] O
mstream_o[106] O
mstream_o[107] O
mstream_o[108] O
mstream_o[109] O
mstream_o[10] O
mstream_o[110] O
mstream_o[111] O
mstream_o[112] O
mstream_o[113] O
mstream_o[114] O
mstream_o[115] O
mstream_o[11] O
mstream_o[12] O
mstream_o[13] O
mstream_o[14] O
mstream_o[15] O
mstream_o[16] O
mstream_o[17] O
mstream_o[18] O
mstream_o[19] O
mstream_o[1] O
mstream_o[20] O
mstream_o[21] O
mstream_o[22] O
mstream_o[23] O
mstream_o[24] O
mstream_o[25] O
mstream_o[26] O
mstream_o[27] O
mstream_o[28] O
mstream_o[29] O
mstream_o[2] O
mstream_o[30] O
mstream_o[31] O
mstream_o[32] O
mstream_o[33] O
mstream_o[34] O
mstream_o[35] O
mstream_o[36] O
mstream_o[37] O
mstream_o[38] O
mstream_o[39] O
mstream_o[3] O
mstream_o[40] O
mstream_o[41] O
mstream_o[42] O
mstream_o[43] O
mstream_o[44] O
mstream_o[45] O
mstream_o[46] O
mstream_o[47] O
mstream_o[48] O
mstream_o[49] O
mstream_o[4] O
mstream_o[50] O
mstream_o[51] O
mstream_o[52] O
mstream_o[53] O
mstream_o[54] O
mstream_o[55] O
mstream_o[56] O
mstream_o[57] O
mstream_o[58] O
mstream_o[59] O
mstream_o[5] O
mstream_o[60] O
mstream_o[61] O
mstream_o[62] O
mstream_o[63] O
mstream_o[64] O
mstream_o[65] O
mstream_o[66] O
mstream_o[67] O
mstream_o[68] O
mstream_o[69] O
mstream_o[6] O
mstream_o[70] O
mstream_o[71] O
mstream_o[72] O
mstream_o[73] O
mstream_o[74] O
mstream_o[75] O
mstream_o[76] O
mstream_o[77] O
mstream_o[78] O
mstream_o[79] O
mstream_o[7] O
mstream_o[80] O
mstream_o[81] O
mstream_o[82] O
mstream_o[83] O
mstream_o[84] O
mstream_o[85] O
mstream_o[86] O
mstream_o[87] O
mstream_o[88] O
mstream_o[89] O
mstream_o[8] O
mstream_o[90] O
mstream_o[91] O
mstream_o[92] O
mstream_o[93] O
mstream_o[94] O
mstream_o[95] O
mstream_o[96] O
mstream_o[97] O
mstream_o[98] O
mstream_o[99] O
mstream_o[9] O
nrst_i I
sstream_i[0] I
sstream_i[100] I
sstream_i[101] I
sstream_i[102] I
sstream_i[103] I
sstream_i[104] I
sstream_i[105] I
sstream_i[106] I
sstream_i[107] I
sstream_i[108] I
sstream_i[109] I
sstream_i[10] I
sstream_i[110] I
sstream_i[111] I
sstream_i[112] I
sstream_i[113] I
sstream_i[114] I
sstream_i[115] I
sstream_i[11] I
sstream_i[12] I
sstream_i[13] I
sstream_i[14] I
sstream_i[15] I
sstream_i[16] I
sstream_i[17] I
sstream_i[18] I
sstream_i[19] I
sstream_i[1] I
sstream_i[20] I
sstream_i[21] I
sstream_i[22] I
sstream_i[23] I
sstream_i[24] I
sstream_i[25] I
sstream_i[26] I
sstream_i[27] I
sstream_i[28] I
sstream_i[29] I
sstream_i[2] I
sstream_i[30] I
sstream_i[31] I
sstream_i[32] I
sstream_i[33] I
sstream_i[34] I
sstream_i[35] I
sstream_i[36] I
sstream_i[37] I
sstream_i[38] I
sstream_i[39] I
sstream_i[3] I
sstream_i[40] I
sstream_i[41] I
sstream_i[42] I
sstream_i[43] I
sstream_i[44] I
sstream_i[45] I
sstream_i[46] I
sstream_i[47] I
sstream_i[48] I
sstream_i[49] I
sstream_i[4] I
sstream_i[50] I
sstream_i[51] I
sstream_i[52] I
sstream_i[53] I
sstream_i[54] I
sstream_i[55] I
sstream_i[56] I
sstream_i[57] I
sstream_i[58] I
sstream_i[59] I
sstream_i[5] I
sstream_i[60] I
sstream_i[61] I
sstream_i[62] I
sstream_i[63] I
sstream_i[64] I
sstream_i[65] I
sstream_i[66] I
sstream_i[67] I
sstream_i[68] I
sstream_i[69] I
sstream_i[6] I
sstream_i[70] I
sstream_i[71] I
sstream_i[72] I
sstream_i[73] I
sstream_i[74] I
sstream_i[75] I
sstream_i[76] I
sstream_i[77] I
sstream_i[78] I
sstream_i[79] I
sstream_i[7] I
sstream_i[80] I
sstream_i[81] I
sstream_i[82] I
sstream_i[83] I
sstream_i[84] I
sstream_i[85] I
sstream_i[86] I
sstream_i[87] I
sstream_i[88] I
sstream_i[89] I
sstream_i[8] I
sstream_i[90] I
sstream_i[91] I
sstream_i[92] I
sstream_i[93] I
sstream_i[94] I
sstream_i[95] I
sstream_i[96] I
sstream_i[97] I
sstream_i[98] I
sstream_i[99] I
sstream_i[9] I
sstream_o O

*D_NET *1 0.0382642
*CONN
*P busy_o O
*I *1821:X O *D sky130_fd_sc_hd__or2_4
*CAP
1 busy_o 0.00988611
2 *1821:X 0.00171544
3 *1:16 0.0116016
4 busy_o mstream_o[0] 0.000130066
5 busy_o mstream_o[10] 0.000130066
6 busy_o mstream_o[11] 0.000106987
7 busy_o mstream_o[13] 0.000106987
8 busy_o mstream_o[14] 0.000131726
9 busy_o mstream_o[16] 0.000130066
10 busy_o mstream_o[18] 0.000130066
11 busy_o mstream_o[19] 0.000106987
12 busy_o mstream_o[1] 0.000106987
13 busy_o mstream_o[20] 0.000130066
14 busy_o mstream_o[21] 0.000106987
15 busy_o mstream_o[23] 0.000106987
16 busy_o mstream_o[24] 0.000130066
17 busy_o mstream_o[26] 0.000130066
18 busy_o mstream_o[28] 0.000130066
19 busy_o mstream_o[29] 0.000106987
20 busy_o mstream_o[31] 6.06899e-05
21 busy_o mstream_o[32] 1.93765e-05
22 busy_o mstream_o[33] 0.000106987
23 busy_o mstream_o[34] 0.000130066
24 busy_o mstream_o[36] 0.000130066
25 busy_o mstream_o[37] 0.000106987
26 busy_o mstream_o[38] 0.000130066
27 busy_o mstream_o[39] 0.000106987
28 busy_o mstream_o[3] 0.000106987
29 busy_o mstream_o[41] 0.000106987
30 busy_o mstream_o[42] 1.93765e-05
31 busy_o mstream_o[43] 0.000106987
32 busy_o mstream_o[44] 0.000130066
33 busy_o mstream_o[46] 0.000129372
34 busy_o mstream_o[47] 0.000108647
35 busy_o mstream_o[48] 0.000130066
36 busy_o mstream_o[49] 0.000106987
37 busy_o mstream_o[4] 2.05641e-05
38 busy_o mstream_o[51] 0.000106987
39 busy_o mstream_o[52] 0.000130066
40 busy_o mstream_o[54] 0.000130066
41 busy_o mstream_o[56] 0.000130066
42 busy_o mstream_o[57] 0.000106987
43 busy_o mstream_o[58] 0.000130066
44 busy_o mstream_o[59] 0.000106987
45 busy_o mstream_o[5] 0.000106987
46 busy_o mstream_o[61] 0.000106987
47 busy_o mstream_o[62] 0.000130066
48 busy_o mstream_o[63] 3.85835e-05
49 busy_o mstream_o[64] 0.000128879
50 busy_o mstream_o[65] 0.000108647
51 busy_o mstream_o[66] 0.000130066
52 busy_o mstream_o[67] 0.000106987
53 busy_o mstream_o[69] 0.000106987
54 busy_o mstream_o[6] 0.000130066
55 busy_o mstream_o[70] 1.93765e-05
56 busy_o mstream_o[71] 0.000106987
57 busy_o mstream_o[72] 0.000130066
58 busy_o mstream_o[74] 0.000130066
59 busy_o mstream_o[75] 0.000106987
60 busy_o mstream_o[76] 0.000130066
61 busy_o mstream_o[77] 0.000106987
62 busy_o mstream_o[79] 0.000106987
63 busy_o mstream_o[80] 0.000130066
64 busy_o mstream_o[81] 0.000106987
65 busy_o mstream_o[82] 0.000130066
66 busy_o mstream_o[84] 0.000130066
67 busy_o mstream_o[85] 0.000106987
68 busy_o mstream_o[86] 0.000130066
69 busy_o mstream_o[87] 0.000106987
70 busy_o mstream_o[89] 0.000106987
71 busy_o mstream_o[8] 0.000130066
72 busy_o mstream_o[90] 0.000130066
73 busy_o mstream_o[92] 0.000130066
74 busy_o mstream_o[94] 0.000130066
75 busy_o mstream_o[95] 3.85835e-05
76 busy_o mstream_o[9] 0.000106987
77 busy_o *3:9 0.00575196
78 busy_o *356:90 0
79 busy_o *356:110 0
80 busy_o *356:126 0
81 *1:16 mstream_o[100] 0.000127758
82 *1:16 mstream_o[102] 0.000127758
83 *1:16 mstream_o[103] 0.000105159
84 *1:16 mstream_o[104] 0.000129418
85 *1:16 mstream_o[105] 0.000105159
86 *1:16 mstream_o[107] 0.000105159
87 *1:16 mstream_o[108] 1.79483e-05
88 *1:16 mstream_o[109] 0.000297032
89 *1:16 mstream_o[97] 0.000105159
90 *1:16 mstream_o[98] 1.79483e-05
91 *1:16 mstream_o[99] 0.000105159
*RES
1 *1821:X *1:16 35.1975 
2 *1:16 busy_o 224.947 
*END

*D_NET *2 0.0215683
*CONN
*P clk_i I
*I *1942:A I *D sky130_fd_sc_hd__clkbuf_16
*CAP
1 clk_i 0.00186785
2 *1942:A 0
3 *2:13 0.0078141
4 *2:11 0.00968195
5 *2:13 mstream_o[15] 4.18147e-05
6 *2:13 mstream_o[17] 8.471e-05
7 *2:13 mstream_o[22] 0
8 *2:13 mstream_o[25] 1.92979e-05
9 *2:13 mstream_o[27] 6.08805e-05
10 *2:13 mstream_o[2] 0
11 *2:13 mstream_o[30] 0
12 *2:13 mstream_o[35] 0.000152498
13 *2:13 mstream_o[40] 0
14 *2:13 mstream_o[45] 8.471e-05
15 *2:13 mstream_o[50] 0
16 *2:13 mstream_o[53] 1.59477e-05
17 *2:13 mstream_o[55] 0
18 *2:13 mstream_o[7] 8.471e-05
19 *2:13 *1853:CLK 0.000392885
20 *2:13 *1853:RESET_B 9.37731e-05
21 *2:13 *1996:A 0.000605559
22 *2:13 *357:20 0.000337762
23 *2:13 *404:14 0.000229897
24 *2:13 *410:26 0
25 *2:13 *410:44 0
26 *2:13 *410:70 0
27 *2:13 *410:83 0
*RES
1 clk_i *2:11 33.115 
2 *2:11 *2:13 134.49 
3 *2:13 *1942:A 3.6 
*END

*D_NET *3 0.0176817
*CONN
*P mstream_i I
*I *1941:A I *D sky130_fd_sc_hd__buf_12
*CAP
1 mstream_i 0.000327584
2 *1941:A 7.37325e-05
3 *3:9 0.00552629
4 *3:7 0.00578015
5 *1941:A mstream_o[58] 0.00016031
6 *3:7 mstream_o[0] 6.16929e-05
7 *3:9 *356:10 0
8 *3:9 *356:12 0
9 *3:9 *356:16 0
10 *3:9 *356:18 0
11 *3:9 *356:22 0
12 *3:9 *356:90 0
13 *3:9 *410:10 0
14 *3:9 *410:26 0
15 busy_o *3:9 0.00575196
*RES
1 mstream_i *3:7 1.24733 
2 *3:7 *3:9 119.317 
3 *3:9 *1941:A 5.085 
*END

*D_NET *4 0.0023824
*CONN
*P mstream_o[0] O
*I *1822:Q O *D sky130_fd_sc_hd__dfrtp_4
*CAP
1 mstream_o[0] 0.000868963
2 *1822:Q 0.000868963
3 mstream_o[0] mstream_o[1] 0.000141923
4 mstream_o[0] *410:10 0.000310789
5 busy_o mstream_o[0] 0.000130066
6 *3:7 mstream_o[0] 6.16929e-05
*RES
1 *1822:Q mstream_o[0] 14.7272 
*END

*D_NET *5 0.00241171
*CONN
*P mstream_o[100] O
*I *1922:Q O *D sky130_fd_sc_hd__dfrtp_4
*CAP
1 mstream_o[100] 0.000888852
2 *1922:Q 0.000888852
3 mstream_o[100] mstream_o[101] 0.000155426
4 mstream_o[100] mstream_o[99] 6.76354e-05
5 mstream_o[100] *1995:A 0.000123955
6 mstream_o[100] *356:158 0
7 mstream_o[100] *409:6 0.000159233
8 *1:16 mstream_o[100] 0.000127758
*RES
1 *1922:Q mstream_o[100] 14.4404 
*END

*D_NET *6 0.00243297
*CONN
*P mstream_o[101] O
*I *1923:Q O *D sky130_fd_sc_hd__dfrtp_4
*CAP
1 mstream_o[101] 0.00105857
2 *1923:Q 0.00105857
3 mstream_o[101] mstream_o[102] 6.83901e-05
4 mstream_o[101] *1917:CLK 0
5 mstream_o[101] *364:14 9.20021e-05
6 mstream_o[100] mstream_o[101] 0.000155426
*RES
1 *1923:Q mstream_o[101] 9.1777 
*END

*D_NET *7 0.00224285
*CONN
*P mstream_o[102] O
*I *1924:Q O *D sky130_fd_sc_hd__dfrtp_4
*CAP
1 mstream_o[102] 0.000945637
2 *1924:Q 0.000945637
3 mstream_o[102] mstream_o[103] 0.000155426
4 mstream_o[101] mstream_o[102] 6.83901e-05
5 *1:16 mstream_o[102] 0.000127758
*RES
1 *1924:Q mstream_o[102] 14.4404 
*END

*D_NET *8 0.00175225
*CONN
*P mstream_o[103] O
*I *1925:Q O *D sky130_fd_sc_hd__dfrtp_4
*CAP
1 mstream_o[103] 0.000712012
2 *1925:Q 0.000712012
3 mstream_o[103] mstream_o[104] 6.76354e-05
4 mstream_o[102] mstream_o[103] 0.000155426
5 *1:16 mstream_o[103] 0.000105159
*RES
1 *1925:Q mstream_o[103] 12.6433 
*END

*D_NET *9 0.00247686
*CONN
*P mstream_o[104] O
*I *1926:Q O *D sky130_fd_sc_hd__dfrtp_4
*CAP
1 mstream_o[104] 0.000704088
2 *1926:Q 0.000704088
3 mstream_o[104] mstream_o[105] 0.000155426
4 mstream_o[104] *1956:A 4.15293e-05
5 mstream_o[104] *364:14 0.000312459
6 mstream_o[104] *371:6 0.000293177
7 mstream_o[104] *371:12 6.90438e-05
8 mstream_o[103] mstream_o[104] 6.76354e-05
9 *1:16 mstream_o[104] 0.000129418
*RES
1 *1926:Q mstream_o[104] 14.8004 
*END

*D_NET *10 0.0017371
*CONN
*P mstream_o[105] O
*I *1927:Q O *D sky130_fd_sc_hd__dfrtp_4
*CAP
1 mstream_o[105] 0.00070444
2 *1927:Q 0.00070444
3 mstream_o[105] mstream_o[106] 6.76354e-05
4 mstream_o[104] mstream_o[105] 0.000155426
5 *1:16 mstream_o[105] 0.000105159
*RES
1 *1927:Q mstream_o[105] 12.6433 
*END

*D_NET *11 0.0027516
*CONN
*P mstream_o[106] O
*I *1928:Q O *D sky130_fd_sc_hd__dfrtp_4
*CAP
1 mstream_o[106] 0.0011139
2 *1928:Q 0.0011139
3 mstream_o[106] mstream_o[107] 0.000330626
4 mstream_o[106] *408:157 0.000125543
5 mstream_o[106] *409:80 0
6 mstream_o[106] *409:92 0
7 mstream_o[105] mstream_o[106] 6.76354e-05
*RES
1 *1928:Q mstream_o[106] 7.74057 
*END

*D_NET *12 0.00197417
*CONN
*P mstream_o[107] O
*I *1929:Q O *D sky130_fd_sc_hd__dfrtp_4
*CAP
1 mstream_o[107] 0.000667166
2 *1929:Q 0.000667166
3 mstream_o[107] mstream_o[108] 0.000204054
4 mstream_o[106] mstream_o[107] 0.000330626
5 *1:16 mstream_o[107] 0.000105159
*RES
1 *1929:Q mstream_o[107] 12.6433 
*END

*D_NET *13 0.00211016
*CONN
*P mstream_o[108] O
*I *1930:Q O *D sky130_fd_sc_hd__dfrtp_4
*CAP
1 mstream_o[108] 0.000927383
2 *1930:Q 0.000927383
3 mstream_o[108] mstream_o[109] 3.07371e-05
4 mstream_o[108] *1937:CLK 2.65814e-06
5 mstream_o[107] mstream_o[108] 0.000204054
6 *1:16 mstream_o[108] 1.79483e-05
*RES
1 *1930:Q mstream_o[108] 13.2516 
*END

*D_NET *14 0.00190364
*CONN
*P mstream_o[109] O
*I *1931:Q O *D sky130_fd_sc_hd__dfrtp_4
*CAP
1 mstream_o[109] 0.000691867
2 *1931:Q 0.000691867
3 mstream_o[109] mstream_o[110] 6.85435e-05
4 mstream_o[109] *1821:A 0.000123592
5 mstream_o[108] mstream_o[109] 3.07371e-05
6 *1:16 mstream_o[109] 0.000297032
*RES
1 *1931:Q mstream_o[109] 12.9883 
*END

*D_NET *15 0.00225451
*CONN
*P mstream_o[10] O
*I *1832:Q O *D sky130_fd_sc_hd__dfrtp_4
*CAP
1 mstream_o[10] 0.000960786
2 *1832:Q 0.000960786
3 mstream_o[10] mstream_o[11] 0.000141923
4 mstream_o[10] mstream_o[9] 6.09492e-05
5 busy_o mstream_o[10] 0.000130066
*RES
1 *1832:Q mstream_o[10] 14.7272 
*END

*D_NET *16 0.00182754
*CONN
*P mstream_o[110] O
*I *1932:Q O *D sky130_fd_sc_hd__dfrtp_4
*CAP
1 mstream_o[110] 0.000799815
2 *1932:Q 0.000799815
3 mstream_o[110] mstream_o[111] 0.000159371
4 mstream_o[109] mstream_o[110] 6.85435e-05
*RES
1 *1932:Q mstream_o[110] 12.1304 
*END

*D_NET *17 0.00180503
*CONN
*P mstream_o[111] O
*I *1933:Q O *D sky130_fd_sc_hd__dfrtp_4
*CAP
1 mstream_o[111] 0.000788186
2 *1933:Q 0.000788186
3 mstream_o[111] mstream_o[112] 6.92872e-05
4 mstream_o[110] mstream_o[111] 0.000159371
*RES
1 *1933:Q mstream_o[111] 13.5133 
*END

*D_NET *18 0.00233325
*CONN
*P mstream_o[112] O
*I *1934:Q O *D sky130_fd_sc_hd__dfrtp_4
*CAP
1 mstream_o[112] 0.00103119
2 *1934:Q 0.00103119
3 mstream_o[112] mstream_o[113] 0.000159371
4 mstream_o[112] mstream_o[115] 2.11084e-05
5 mstream_o[112] *1937:CLK 2.11084e-05
6 mstream_o[111] mstream_o[112] 6.92872e-05
*RES
1 *1934:Q mstream_o[112] 13.5404 
*END

*D_NET *19 0.00265114
*CONN
*P mstream_o[113] O
*I *1935:Q O *D sky130_fd_sc_hd__dfrtp_4
*CAP
1 mstream_o[113] 0.00102298
2 *1935:Q 0.00102298
3 mstream_o[113] mstream_o[114] 0.000445802
4 mstream_o[113] *1935:RESET_B 0
5 mstream_o[112] mstream_o[113] 0.000159371
*RES
1 *1935:Q mstream_o[113] 8.0817 
*END

*D_NET *20 0.00391357
*CONN
*P mstream_o[114] O
*I *1821:B I *D sky130_fd_sc_hd__or2_4
*I *1936:Q O *D sky130_fd_sc_hd__dfrtp_4
*CAP
1 mstream_o[114] 0.00117991
2 *1821:B 0.000160579
3 *1936:Q 6.73541e-05
4 *20:8 0.00140784
5 mstream_o[114] mstream_o[115] 3.07371e-05
6 mstream_o[114] *1935:RESET_B 0
7 mstream_o[114] *1937:CLK 0.000173867
8 mstream_o[114] *1937:D 0.000131356
9 mstream_o[114] *1937:RESET_B 0
10 *1821:B *1821:A 4.82919e-05
11 *1821:B *1937:CLK 6.23541e-06
12 *1821:B *408:157 0.000130065
13 *20:8 *1936:RESET_B 4.66108e-05
14 *20:8 *1937:RESET_B 8.49205e-05
15 mstream_o[113] mstream_o[114] 0.000445802
*RES
1 *1936:Q *20:8 4.74 
2 *20:8 *1821:B 6.96 
3 *20:8 mstream_o[114] 10.6819 
*END

*D_NET *21 0.00142603
*CONN
*P mstream_o[115] O
*I *1937:Q O *D sky130_fd_sc_hd__dfrtp_4
*CAP
1 mstream_o[115] 0.000687094
2 *1937:Q 0.000687094
3 mstream_o[112] mstream_o[115] 2.11084e-05
4 mstream_o[114] mstream_o[115] 3.07371e-05
*RES
1 *1937:Q mstream_o[115] 10.9166 
*END

*D_NET *22 0.00178765
*CONN
*P mstream_o[11] O
*I *1833:Q O *D sky130_fd_sc_hd__dfrtp_4
*CAP
1 mstream_o[11] 0.000738898
2 *1833:Q 0.000738898
3 mstream_o[11] mstream_o[12] 6.09492e-05
4 busy_o mstream_o[11] 0.000106987
5 mstream_o[10] mstream_o[11] 0.000141923
*RES
1 *1833:Q mstream_o[11] 12.93 
*END

*D_NET *23 0.00272177
*CONN
*P mstream_o[12] O
*I *1834:Q O *D sky130_fd_sc_hd__dfrtp_4
*CAP
1 mstream_o[12] 0.00123539
2 *1834:Q 0.00123539
3 mstream_o[12] mstream_o[13] 0.000145173
4 mstream_o[12] mstream_o[15] 0
5 mstream_o[12] *357:20 4.48613e-05
6 mstream_o[12] *401:139 0
7 mstream_o[12] *401:150 0
8 mstream_o[11] mstream_o[12] 6.09492e-05
*RES
1 *1834:Q mstream_o[12] 7.74057 
*END

*D_NET *24 0.00194439
*CONN
*P mstream_o[13] O
*I *1835:Q O *D sky130_fd_sc_hd__dfrtp_4
*CAP
1 mstream_o[13] 0.000711645
2 *1835:Q 0.000711645
3 mstream_o[13] mstream_o[14] 6.09492e-05
4 mstream_o[13] *418:DIODE 0.000122801
5 mstream_o[13] *358:6 8.51862e-05
6 busy_o mstream_o[13] 0.000106987
7 mstream_o[12] mstream_o[13] 0.000145173
*RES
1 *1835:Q mstream_o[13] 13.395 
*END

*D_NET *25 0.00219813
*CONN
*P mstream_o[14] O
*I *1836:Q O *D sky130_fd_sc_hd__dfrtp_4
*CAP
1 mstream_o[14] 0.000896909
2 *1836:Q 0.000896909
3 mstream_o[14] mstream_o[15] 0.000141923
4 mstream_o[14] *1943:A 6.97118e-05
5 busy_o mstream_o[14] 0.000131726
6 mstream_o[13] mstream_o[14] 6.09492e-05
*RES
1 *1836:Q mstream_o[14] 15.0872 
*END

*D_NET *26 0.00220146
*CONN
*P mstream_o[15] O
*I *1837:Q O *D sky130_fd_sc_hd__dfrtp_4
*CAP
1 mstream_o[15] 0.000978015
2 *1837:Q 0.000978015
3 mstream_o[15] mstream_o[16] 6.16929e-05
4 mstream_o[15] mstream_o[17] 0
5 mstream_o[12] mstream_o[15] 0
6 mstream_o[14] mstream_o[15] 0.000141923
7 *2:13 mstream_o[15] 4.18147e-05
*RES
1 *1837:Q mstream_o[15] 6.57363 
*END

*D_NET *27 0.00225876
*CONN
*P mstream_o[16] O
*I *1838:Q O *D sky130_fd_sc_hd__dfrtp_4
*CAP
1 mstream_o[16] 0.000957099
2 *1838:Q 0.000957099
3 mstream_o[16] mstream_o[17] 0.000141923
4 mstream_o[16] *1838:RESET_B 1.08758e-05
5 busy_o mstream_o[16] 0.000130066
6 mstream_o[15] mstream_o[16] 6.16929e-05
*RES
1 *1838:Q mstream_o[16] 14.7272 
*END

*D_NET *28 0.00246136
*CONN
*P mstream_o[17] O
*I *1839:Q O *D sky130_fd_sc_hd__dfrtp_4
*CAP
1 mstream_o[17] 0.0010591
2 *1839:Q 0.0010591
3 mstream_o[17] mstream_o[18] 6.16929e-05
4 mstream_o[17] *402:40 5.48305e-05
5 mstream_o[15] mstream_o[17] 0
6 mstream_o[16] mstream_o[17] 0.000141923
7 *2:13 mstream_o[17] 8.471e-05
*RES
1 *1839:Q mstream_o[17] 7.82077 
*END

*D_NET *29 0.00226155
*CONN
*P mstream_o[18] O
*I *1840:Q O *D sky130_fd_sc_hd__dfrtp_4
*CAP
1 mstream_o[18] 0.00096102
2 *1840:Q 0.00096102
3 mstream_o[18] mstream_o[19] 0.000141923
4 mstream_o[18] *1840:RESET_B 5.83121e-06
5 busy_o mstream_o[18] 0.000130066
6 mstream_o[17] mstream_o[18] 6.16929e-05
*RES
1 *1840:Q mstream_o[18] 14.7272 
*END

*D_NET *30 0.00186933
*CONN
*P mstream_o[19] O
*I *1841:Q O *D sky130_fd_sc_hd__dfrtp_4
*CAP
1 mstream_o[19] 0.000779733
2 *1841:Q 0.000779733
3 mstream_o[19] mstream_o[20] 6.09492e-05
4 busy_o mstream_o[19] 0.000106987
5 mstream_o[18] mstream_o[19] 0.000141923
*RES
1 *1841:Q mstream_o[19] 13.62 
*END

*D_NET *31 0.00199403
*CONN
*P mstream_o[1] O
*I *1823:Q O *D sky130_fd_sc_hd__dfrtp_4
*CAP
1 mstream_o[1] 0.000736154
2 *1823:Q 0.000736154
3 mstream_o[1] mstream_o[2] 6.09492e-05
4 mstream_o[1] *442:DIODE 0.000123592
5 mstream_o[1] *1823:RESET_B 8.8266e-05
6 busy_o mstream_o[1] 0.000106987
7 mstream_o[0] mstream_o[1] 0.000141923
*RES
1 *1823:Q mstream_o[1] 13.62 
*END

*D_NET *32 0.00226372
*CONN
*P mstream_o[20] O
*I *1842:Q O *D sky130_fd_sc_hd__dfrtp_4
*CAP
1 mstream_o[20] 0.000962475
2 *1842:Q 0.000962475
3 mstream_o[20] mstream_o[21] 0.000141923
4 mstream_o[20] *1842:RESET_B 5.83121e-06
5 busy_o mstream_o[20] 0.000130066
6 mstream_o[19] mstream_o[20] 6.09492e-05
*RES
1 *1842:Q mstream_o[20] 14.7272 
*END

*D_NET *33 0.00186933
*CONN
*P mstream_o[21] O
*I *1843:Q O *D sky130_fd_sc_hd__dfrtp_4
*CAP
1 mstream_o[21] 0.000779733
2 *1843:Q 0.000779733
3 mstream_o[21] mstream_o[22] 6.09492e-05
4 busy_o mstream_o[21] 0.000106987
5 mstream_o[20] mstream_o[21] 0.000141923
*RES
1 *1843:Q mstream_o[21] 13.62 
*END

*D_NET *34 0.00263625
*CONN
*P mstream_o[22] O
*I *1844:Q O *D sky130_fd_sc_hd__dfrtp_4
*CAP
1 mstream_o[22] 0.00121506
2 *1844:Q 0.00121506
3 mstream_o[22] mstream_o[23] 0.000145173
4 mstream_o[22] mstream_o[25] 0
5 mstream_o[22] *1850:RESET_B 0
6 mstream_o[21] mstream_o[22] 6.09492e-05
7 *2:13 mstream_o[22] 0
*RES
1 *1844:Q mstream_o[22] 7.74057 
*END

*D_NET *35 0.00183489
*CONN
*P mstream_o[23] O
*I *1845:Q O *D sky130_fd_sc_hd__dfrtp_4
*CAP
1 mstream_o[23] 0.000760892
2 *1845:Q 0.000760892
3 mstream_o[23] mstream_o[24] 6.09492e-05
4 busy_o mstream_o[23] 0.000106987
5 mstream_o[22] mstream_o[23] 0.000145173
*RES
1 *1845:Q mstream_o[23] 13.275 
*END

*D_NET *36 0.00225429
*CONN
*P mstream_o[24] O
*I *1846:Q O *D sky130_fd_sc_hd__dfrtp_4
*CAP
1 mstream_o[24] 0.000960677
2 *1846:Q 0.000960677
3 mstream_o[24] mstream_o[25] 0.000141923
4 busy_o mstream_o[24] 0.000130066
5 mstream_o[23] mstream_o[24] 6.09492e-05
*RES
1 *1846:Q mstream_o[24] 14.7272 
*END

*D_NET *37 0.00211821
*CONN
*P mstream_o[25] O
*I *1847:Q O *D sky130_fd_sc_hd__dfrtp_4
*CAP
1 mstream_o[25] 0.00094765
2 *1847:Q 0.00094765
3 mstream_o[25] mstream_o[26] 6.16929e-05
4 mstream_o[25] mstream_o[27] 0
5 mstream_o[25] *1850:RESET_B 0
6 mstream_o[22] mstream_o[25] 0
7 mstream_o[24] mstream_o[25] 0.000141923
8 *2:13 mstream_o[25] 1.92979e-05
*RES
1 *1847:Q mstream_o[25] 6.31863 
*END

*D_NET *38 0.00221559
*CONN
*P mstream_o[26] O
*I *1848:Q O *D sky130_fd_sc_hd__dfrtp_4
*CAP
1 mstream_o[26] 0.000940954
2 *1848:Q 0.000940954
3 mstream_o[26] mstream_o[27] 0.000141923
4 busy_o mstream_o[26] 0.000130066
5 mstream_o[25] mstream_o[26] 6.16929e-05
*RES
1 *1848:Q mstream_o[26] 14.7272 
*END

*D_NET *39 0.00250984
*CONN
*P mstream_o[27] O
*I *1849:Q O *D sky130_fd_sc_hd__dfrtp_4
*CAP
1 mstream_o[27] 0.00112267
2 *1849:Q 0.00112267
3 mstream_o[27] mstream_o[28] 6.16929e-05
4 mstream_o[27] *1850:RESET_B 0
5 mstream_o[25] mstream_o[27] 0
6 mstream_o[26] mstream_o[27] 0.000141923
7 *2:13 mstream_o[27] 6.08805e-05
*RES
1 *1849:Q mstream_o[27] 7.87903 
*END

*D_NET *40 0.0022221
*CONN
*P mstream_o[28] O
*I *1850:Q O *D sky130_fd_sc_hd__dfrtp_4
*CAP
1 mstream_o[28] 0.00094421
2 *1850:Q 0.00094421
3 mstream_o[28] mstream_o[29] 0.000141923
4 busy_o mstream_o[28] 0.000130066
5 mstream_o[27] mstream_o[28] 6.16929e-05
*RES
1 *1850:Q mstream_o[28] 14.7272 
*END

*D_NET *41 0.00204969
*CONN
*P mstream_o[29] O
*I *1851:Q O *D sky130_fd_sc_hd__dfrtp_4
*CAP
1 mstream_o[29] 0.000759312
2 *1851:Q 0.000759312
3 mstream_o[29] mstream_o[30] 6.09492e-05
4 mstream_o[29] *445:DIODE 4.80285e-05
5 mstream_o[29] *1851:RESET_B 0.000124895
6 mstream_o[29] *1990:A 4.82863e-05
7 busy_o mstream_o[29] 0.000106987
8 mstream_o[28] mstream_o[29] 0.000141923
*RES
1 *1851:Q mstream_o[29] 13.965 
*END

*D_NET *42 0.00265581
*CONN
*P mstream_o[2] O
*I *1824:Q O *D sky130_fd_sc_hd__dfrtp_4
*CAP
1 mstream_o[2] 0.00122484
2 *1824:Q 0.00122484
3 mstream_o[2] mstream_o[3] 0.000145173
4 mstream_o[2] *1826:RESET_B 0
5 mstream_o[2] *401:38 0
6 mstream_o[1] mstream_o[2] 6.09492e-05
7 *2:13 mstream_o[2] 0
*RES
1 *1824:Q mstream_o[2] 7.74057 
*END

*D_NET *43 0.00254355
*CONN
*P mstream_o[30] O
*I *1852:Q O *D sky130_fd_sc_hd__dfrtp_4
*CAP
1 mstream_o[30] 0.0011726
2 *1852:Q 0.0011726
3 mstream_o[30] mstream_o[31] 0.000127725
4 mstream_o[30] mstream_o[32] 9.66862e-06
5 mstream_o[29] mstream_o[30] 6.09492e-05
6 *2:13 mstream_o[30] 0
*RES
1 *1852:Q mstream_o[30] 7.99557 
*END

*D_NET *44 0.000713522
*CONN
*P mstream_o[31] O
*I *1853:Q O *D sky130_fd_sc_hd__dfrtp_4
*CAP
1 mstream_o[31] 0.000180938
2 *1853:Q 0.000180938
3 mstream_o[31] mstream_o[32] 0.000163233
4 busy_o mstream_o[31] 6.06899e-05
5 mstream_o[30] mstream_o[31] 0.000127725
*RES
1 *1853:Q mstream_o[31] 5.86677 
*END

*D_NET *45 0.00211116
*CONN
*P mstream_o[32] O
*I *1854:Q O *D sky130_fd_sc_hd__dfrtp_4
*CAP
1 mstream_o[32] 0.00094407
2 *1854:Q 0.00094407
3 mstream_o[32] mstream_o[33] 3.07371e-05
4 busy_o mstream_o[32] 1.93765e-05
5 mstream_o[30] mstream_o[32] 9.66862e-06
6 mstream_o[31] mstream_o[32] 0.000163233
*RES
1 *1854:Q mstream_o[32] 13.5383 
*END

*D_NET *46 0.00182767
*CONN
*P mstream_o[33] O
*I *1855:Q O *D sky130_fd_sc_hd__dfrtp_4
*CAP
1 mstream_o[33] 0.000814496
2 *1855:Q 0.000814496
3 mstream_o[33] mstream_o[34] 6.09492e-05
4 busy_o mstream_o[33] 0.000106987
5 mstream_o[32] mstream_o[33] 3.07371e-05
*RES
1 *1855:Q mstream_o[33] 13.275 
*END

*D_NET *47 0.00226587
*CONN
*P mstream_o[34] O
*I *1856:Q O *D sky130_fd_sc_hd__dfrtp_4
*CAP
1 mstream_o[34] 0.000966467
2 *1856:Q 0.000966467
3 mstream_o[34] mstream_o[35] 0.000141923
4 busy_o mstream_o[34] 0.000130066
5 mstream_o[33] mstream_o[34] 6.09492e-05
*RES
1 *1856:Q mstream_o[34] 14.7272 
*END

*D_NET *48 0.00245432
*CONN
*P mstream_o[35] O
*I *1857:Q O *D sky130_fd_sc_hd__dfrtp_4
*CAP
1 mstream_o[35] 0.0010491
2 *1857:Q 0.0010491
3 mstream_o[35] mstream_o[36] 6.16929e-05
4 mstream_o[35] *404:80 0
5 mstream_o[35] *404:92 0
6 mstream_o[34] mstream_o[35] 0.000141923
7 *2:13 mstream_o[35] 0.000152498
*RES
1 *1857:Q mstream_o[35] 7.7625 
*END

*D_NET *49 0.00225214
*CONN
*P mstream_o[36] O
*I *1858:Q O *D sky130_fd_sc_hd__dfrtp_4
*CAP
1 mstream_o[36] 0.000959229
2 *1858:Q 0.000959229
3 mstream_o[36] mstream_o[37] 0.000141923
4 busy_o mstream_o[36] 0.000130066
5 mstream_o[35] mstream_o[36] 6.16929e-05
*RES
1 *1858:Q mstream_o[36] 14.7272 
*END

*D_NET *50 0.0018906
*CONN
*P mstream_o[37] O
*I *1859:Q O *D sky130_fd_sc_hd__dfrtp_4
*CAP
1 mstream_o[37] 0.000790371
2 *1859:Q 0.000790371
3 mstream_o[37] mstream_o[38] 6.09492e-05
4 busy_o mstream_o[37] 0.000106987
5 mstream_o[36] mstream_o[37] 0.000141923
*RES
1 *1859:Q mstream_o[37] 13.62 
*END

*D_NET *51 0.00225429
*CONN
*P mstream_o[38] O
*I *1860:Q O *D sky130_fd_sc_hd__dfrtp_4
*CAP
1 mstream_o[38] 0.000960677
2 *1860:Q 0.000960677
3 mstream_o[38] mstream_o[39] 0.000141923
4 busy_o mstream_o[38] 0.000130066
5 mstream_o[37] mstream_o[38] 6.09492e-05
*RES
1 *1860:Q mstream_o[38] 14.7272 
*END

*D_NET *52 0.0018906
*CONN
*P mstream_o[39] O
*I *1861:Q O *D sky130_fd_sc_hd__dfrtp_4
*CAP
1 mstream_o[39] 0.000790371
2 *1861:Q 0.000790371
3 mstream_o[39] mstream_o[40] 6.09492e-05
4 busy_o mstream_o[39] 0.000106987
5 mstream_o[38] mstream_o[39] 0.000141923
*RES
1 *1861:Q mstream_o[39] 13.62 
*END

*D_NET *53 0.00187132
*CONN
*P mstream_o[3] O
*I *1825:Q O *D sky130_fd_sc_hd__dfrtp_4
*CAP
1 mstream_o[3] 0.000717351
2 *1825:Q 0.000717351
3 mstream_o[3] mstream_o[4] 0.000184455
4 busy_o mstream_o[3] 0.000106987
5 mstream_o[2] mstream_o[3] 0.000145173
*RES
1 *1825:Q mstream_o[3] 13.275 
*END

*D_NET *54 0.00263218
*CONN
*P mstream_o[40] O
*I *1862:Q O *D sky130_fd_sc_hd__dfrtp_4
*CAP
1 mstream_o[40] 0.00121303
2 *1862:Q 0.00121303
3 mstream_o[40] mstream_o[41] 0.000145173
4 mstream_o[40] *404:130 0
5 mstream_o[40] *404:137 0
6 mstream_o[39] mstream_o[40] 6.09492e-05
7 *2:13 mstream_o[40] 0
*RES
1 *1862:Q mstream_o[40] 7.74057 
*END

*D_NET *55 0.00183694
*CONN
*P mstream_o[41] O
*I *1863:Q O *D sky130_fd_sc_hd__dfrtp_4
*CAP
1 mstream_o[41] 0.000700162
2 *1863:Q 0.000700162
3 mstream_o[41] mstream_o[42] 0.000184455
4 busy_o mstream_o[41] 0.000106987
5 mstream_o[40] mstream_o[41] 0.000145173
*RES
1 *1863:Q mstream_o[41] 12.93 
*END

*D_NET *56 0.00207726
*CONN
*P mstream_o[42] O
*I *1864:Q O *D sky130_fd_sc_hd__dfrtp_4
*CAP
1 mstream_o[42] 0.000921346
2 *1864:Q 0.000921346
3 mstream_o[42] mstream_o[43] 3.07371e-05
4 busy_o mstream_o[42] 1.93765e-05
5 mstream_o[41] mstream_o[42] 0.000184455
*RES
1 *1864:Q mstream_o[42] 13.5383 
*END

*D_NET *57 0.00188
*CONN
*P mstream_o[43] O
*I *1865:Q O *D sky130_fd_sc_hd__dfrtp_4
*CAP
1 mstream_o[43] 0.000840661
2 *1865:Q 0.000840661
3 mstream_o[43] mstream_o[44] 6.09492e-05
4 busy_o mstream_o[43] 0.000106987
5 mstream_o[42] mstream_o[43] 3.07371e-05
*RES
1 *1865:Q mstream_o[43] 13.62 
*END

*D_NET *58 0.00225454
*CONN
*P mstream_o[44] O
*I *1866:Q O *D sky130_fd_sc_hd__dfrtp_4
*CAP
1 mstream_o[44] 0.000960799
2 *1866:Q 0.000960799
3 mstream_o[44] mstream_o[45] 0.000141923
4 busy_o mstream_o[44] 0.000130066
5 mstream_o[43] mstream_o[44] 6.09492e-05
*RES
1 *1866:Q mstream_o[44] 14.7272 
*END

*D_NET *59 0.00258579
*CONN
*P mstream_o[45] O
*I *1867:Q O *D sky130_fd_sc_hd__dfrtp_4
*CAP
1 mstream_o[45] 0.00114873
2 *1867:Q 0.00114873
3 mstream_o[45] mstream_o[46] 6.16929e-05
4 mstream_o[45] *1879:RESET_B 0
5 mstream_o[44] mstream_o[45] 0.000141923
6 *2:13 mstream_o[45] 8.471e-05
*RES
1 *1867:Q mstream_o[45] 7.82077 
*END

*D_NET *60 0.00226115
*CONN
*P mstream_o[46] O
*I *1868:Q O *D sky130_fd_sc_hd__dfrtp_4
*CAP
1 mstream_o[46] 0.000890584
2 *1868:Q 0.000890584
3 mstream_o[46] mstream_o[47] 0.000141923
4 mstream_o[46] *420:DIODE 2.10214e-05
5 mstream_o[46] *1946:A 5.05437e-05
6 mstream_o[46] *360:12 7.54285e-05
7 busy_o mstream_o[46] 0.000129372
8 mstream_o[45] mstream_o[46] 6.16929e-05
*RES
1 *1868:Q mstream_o[46] 15.0872 
*END

*D_NET *61 0.00200307
*CONN
*P mstream_o[47] O
*I *1869:Q O *D sky130_fd_sc_hd__dfrtp_4
*CAP
1 mstream_o[47] 0.000802155
2 *1869:Q 0.000802155
3 mstream_o[47] mstream_o[48] 6.09492e-05
4 mstream_o[47] *419:DIODE 3.66977e-05
5 mstream_o[47] *359:8 5.05437e-05
6 busy_o mstream_o[47] 0.000108647
7 mstream_o[46] mstream_o[47] 0.000141923
*RES
1 *1869:Q mstream_o[47] 13.89 
*END

*D_NET *62 0.00225428
*CONN
*P mstream_o[48] O
*I *1870:Q O *D sky130_fd_sc_hd__dfrtp_4
*CAP
1 mstream_o[48] 0.000960669
2 *1870:Q 0.000960669
3 mstream_o[48] mstream_o[49] 0.000141923
4 busy_o mstream_o[48] 0.000130066
5 mstream_o[47] mstream_o[48] 6.09492e-05
*RES
1 *1870:Q mstream_o[48] 14.7272 
*END

*D_NET *63 0.00177778
*CONN
*P mstream_o[49] O
*I *1871:Q O *D sky130_fd_sc_hd__dfrtp_4
*CAP
1 mstream_o[49] 0.000733958
2 *1871:Q 0.000733958
3 mstream_o[49] mstream_o[50] 6.09492e-05
4 busy_o mstream_o[49] 0.000106987
5 mstream_o[48] mstream_o[49] 0.000141923
*RES
1 *1871:Q mstream_o[49] 12.93 
*END

*D_NET *64 0.00207767
*CONN
*P mstream_o[4] O
*I *1826:Q O *D sky130_fd_sc_hd__dfrtp_4
*CAP
1 mstream_o[4] 0.000906273
2 *1826:Q 0.000906273
3 mstream_o[4] mstream_o[5] 3.07371e-05
4 mstream_o[4] *357:20 2.937e-05
5 busy_o mstream_o[4] 2.05641e-05
6 mstream_o[3] mstream_o[4] 0.000184455
*RES
1 *1826:Q mstream_o[4] 13.8983 
*END

*D_NET *65 0.00261574
*CONN
*P mstream_o[50] O
*I *1872:Q O *D sky130_fd_sc_hd__dfrtp_4
*CAP
1 mstream_o[50] 0.00120481
2 *1872:Q 0.00120481
3 mstream_o[50] mstream_o[51] 0.000145173
4 mstream_o[50] mstream_o[53] 0
5 mstream_o[50] *1879:RESET_B 0
6 mstream_o[49] mstream_o[50] 6.09492e-05
7 *2:13 mstream_o[50] 0
*RES
1 *1872:Q mstream_o[50] 7.74057 
*END

*D_NET *66 0.00178913
*CONN
*P mstream_o[51] O
*I *1873:Q O *D sky130_fd_sc_hd__dfrtp_4
*CAP
1 mstream_o[51] 0.000738012
2 *1873:Q 0.000738012
3 mstream_o[51] mstream_o[52] 6.09492e-05
4 busy_o mstream_o[51] 0.000106987
5 mstream_o[50] mstream_o[51] 0.000145173
*RES
1 *1873:Q mstream_o[51] 12.93 
*END

*D_NET *67 0.00225428
*CONN
*P mstream_o[52] O
*I *1874:Q O *D sky130_fd_sc_hd__dfrtp_4
*CAP
1 mstream_o[52] 0.000960669
2 *1874:Q 0.000960669
3 mstream_o[52] mstream_o[53] 0.000141923
4 busy_o mstream_o[52] 0.000130066
5 mstream_o[51] mstream_o[52] 6.09492e-05
*RES
1 *1874:Q mstream_o[52] 14.7272 
*END

*D_NET *68 0.00223799
*CONN
*P mstream_o[53] O
*I *1875:Q O *D sky130_fd_sc_hd__dfrtp_4
*CAP
1 mstream_o[53] 0.00100922
2 *1875:Q 0.00100922
3 mstream_o[53] mstream_o[54] 6.16929e-05
4 mstream_o[53] mstream_o[55] 0
5 mstream_o[53] *1879:RESET_B 0
6 mstream_o[50] mstream_o[53] 0
7 mstream_o[52] mstream_o[53] 0.000141923
8 *2:13 mstream_o[53] 1.59477e-05
*RES
1 *1875:Q mstream_o[53] 6.69017 
*END

*D_NET *69 0.00221559
*CONN
*P mstream_o[54] O
*I *1876:Q O *D sky130_fd_sc_hd__dfrtp_4
*CAP
1 mstream_o[54] 0.000940954
2 *1876:Q 0.000940954
3 mstream_o[54] mstream_o[55] 0.000141923
4 busy_o mstream_o[54] 0.000130066
5 mstream_o[53] mstream_o[54] 6.16929e-05
*RES
1 *1876:Q mstream_o[54] 14.7272 
*END

*D_NET *70 0.00254322
*CONN
*P mstream_o[55] O
*I *1877:Q O *D sky130_fd_sc_hd__dfrtp_4
*CAP
1 mstream_o[55] 0.0011698
2 *1877:Q 0.0011698
3 mstream_o[55] mstream_o[56] 6.16929e-05
4 mstream_o[55] *1879:RESET_B 0
5 mstream_o[53] mstream_o[55] 0
6 mstream_o[54] mstream_o[55] 0.000141923
7 *2:13 mstream_o[55] 0
*RES
1 *1877:Q mstream_o[55] 7.9373 
*END

*D_NET *71 0.0022221
*CONN
*P mstream_o[56] O
*I *1878:Q O *D sky130_fd_sc_hd__dfrtp_4
*CAP
1 mstream_o[56] 0.00094421
2 *1878:Q 0.00094421
3 mstream_o[56] mstream_o[57] 0.000141923
4 busy_o mstream_o[56] 0.000130066
5 mstream_o[55] mstream_o[56] 6.16929e-05
*RES
1 *1878:Q mstream_o[56] 14.7272 
*END

*D_NET *72 0.00182051
*CONN
*P mstream_o[57] O
*I *1879:Q O *D sky130_fd_sc_hd__dfrtp_4
*CAP
1 mstream_o[57] 0.000697897
2 *1879:Q 0.000697897
3 mstream_o[57] mstream_o[58] 6.09492e-05
4 mstream_o[57] *356:8 0.000114858
5 busy_o mstream_o[57] 0.000106987
6 mstream_o[56] mstream_o[57] 0.000141923
*RES
1 *1879:Q mstream_o[57] 12.93 
*END

*D_NET *73 0.00231556
*CONN
*P mstream_o[58] O
*I *1880:Q O *D sky130_fd_sc_hd__dfrtp_4
*CAP
1 mstream_o[58] 0.000876876
2 *1880:Q 0.000876876
3 mstream_o[58] mstream_o[59] 0.000141923
4 mstream_o[58] *237:14 6.85625e-05
5 busy_o mstream_o[58] 0.000130066
6 mstream_o[57] mstream_o[58] 6.09492e-05
7 *1941:A mstream_o[58] 0.00016031
*RES
1 *1880:Q mstream_o[58] 14.7272 
*END

*D_NET *74 0.00207971
*CONN
*P mstream_o[59] O
*I *1881:Q O *D sky130_fd_sc_hd__dfrtp_4
*CAP
1 mstream_o[59] 0.000735751
2 *1881:Q 0.000735751
3 mstream_o[59] mstream_o[60] 6.09492e-05
4 mstream_o[59] *447:DIODE 0.00012349
5 mstream_o[59] *406:6 8.8266e-05
6 mstream_o[59] *410:87 8.65961e-05
7 busy_o mstream_o[59] 0.000106987
8 mstream_o[58] mstream_o[59] 0.000141923
*RES
1 *1881:Q mstream_o[59] 13.965 
*END

*D_NET *75 0.00176271
*CONN
*P mstream_o[5] O
*I *1827:Q O *D sky130_fd_sc_hd__dfrtp_4
*CAP
1 mstream_o[5] 0.000782019
2 *1827:Q 0.000782019
3 mstream_o[5] mstream_o[6] 6.09492e-05
4 busy_o mstream_o[5] 0.000106987
5 mstream_o[4] mstream_o[5] 3.07371e-05
*RES
1 *1827:Q mstream_o[5] 12.93 
*END

*D_NET *76 0.00268523
*CONN
*P mstream_o[60] O
*I *1882:Q O *D sky130_fd_sc_hd__dfrtp_4
*CAP
1 mstream_o[60] 0.00123955
2 *1882:Q 0.00123955
3 mstream_o[60] mstream_o[61] 0.000145173
4 mstream_o[60] *406:23 0
5 mstream_o[60] *406:39 0
6 mstream_o[60] *410:101 0
7 mstream_o[59] mstream_o[60] 6.09492e-05
*RES
1 *1882:Q mstream_o[60] 7.74057 
*END

*D_NET *77 0.00179027
*CONN
*P mstream_o[61] O
*I *1883:Q O *D sky130_fd_sc_hd__dfrtp_4
*CAP
1 mstream_o[61] 0.000738581
2 *1883:Q 0.000738581
3 mstream_o[61] mstream_o[62] 6.09492e-05
4 busy_o mstream_o[61] 0.000106987
5 mstream_o[60] mstream_o[61] 0.000145173
*RES
1 *1883:Q mstream_o[61] 13.275 
*END

*D_NET *78 0.00223149
*CONN
*P mstream_o[62] O
*I *1884:Q O *D sky130_fd_sc_hd__dfrtp_4
*CAP
1 mstream_o[62] 0.000956375
2 *1884:Q 0.000956375
3 mstream_o[62] mstream_o[63] 0.000127725
4 mstream_o[62] mstream_o[64] 0
5 busy_o mstream_o[62] 0.000130066
6 mstream_o[61] mstream_o[62] 6.09492e-05
*RES
1 *1884:Q mstream_o[62] 14.7272 
*END

*D_NET *79 0.000594994
*CONN
*P mstream_o[63] O
*I *1885:Q O *D sky130_fd_sc_hd__dfrtp_4
*CAP
1 mstream_o[63] 0.000187665
2 *1885:Q 0.000187665
3 mstream_o[63] mstream_o[64] 5.33548e-05
4 busy_o mstream_o[63] 3.85835e-05
5 mstream_o[62] mstream_o[63] 0.000127725
*RES
1 *1885:Q mstream_o[63] 5.35677 
*END

*D_NET *80 0.00290428
*CONN
*P mstream_o[64] O
*I *1886:Q O *D sky130_fd_sc_hd__dfrtp_4
*CAP
1 mstream_o[64] 0.00108313
2 *1886:Q 0.00108313
3 mstream_o[64] mstream_o[65] 0.000141923
4 mstream_o[64] *1885:RESET_B 0.000413851
5 busy_o mstream_o[64] 0.000128879
6 mstream_o[62] mstream_o[64] 0
7 mstream_o[63] mstream_o[64] 5.33548e-05
*RES
1 *1886:Q mstream_o[64] 15.4472 
*END

*D_NET *81 0.00187159
*CONN
*P mstream_o[65] O
*I *1887:Q O *D sky130_fd_sc_hd__dfrtp_4
*CAP
1 mstream_o[65] 0.000774205
2 *1887:Q 0.000774205
3 mstream_o[65] mstream_o[66] 6.09492e-05
4 mstream_o[65] *361:18 1.16578e-05
5 busy_o mstream_o[65] 0.000108647
6 mstream_o[64] mstream_o[65] 0.000141923
*RES
1 *1887:Q mstream_o[65] 13.635 
*END

*D_NET *82 0.00224292
*CONN
*P mstream_o[66] O
*I *1888:Q O *D sky130_fd_sc_hd__dfrtp_4
*CAP
1 mstream_o[66] 0.000954988
2 *1888:Q 0.000954988
3 mstream_o[66] mstream_o[67] 0.000141923
4 busy_o mstream_o[66] 0.000130066
5 mstream_o[65] mstream_o[66] 6.09492e-05
*RES
1 *1888:Q mstream_o[66] 14.7272 
*END

*D_NET *83 0.00182926
*CONN
*P mstream_o[67] O
*I *1889:Q O *D sky130_fd_sc_hd__dfrtp_4
*CAP
1 mstream_o[67] 0.000759703
2 *1889:Q 0.000759703
3 mstream_o[67] mstream_o[68] 6.09492e-05
4 busy_o mstream_o[67] 0.000106987
5 mstream_o[66] mstream_o[67] 0.000141923
*RES
1 *1889:Q mstream_o[67] 13.275 
*END

*D_NET *84 0.00274699
*CONN
*P mstream_o[68] O
*I *1890:Q O *D sky130_fd_sc_hd__dfrtp_4
*CAP
1 mstream_o[68] 0.00127043
2 *1890:Q 0.00127043
3 mstream_o[68] mstream_o[69] 0.000145173
4 mstream_o[68] *406:131 0
5 mstream_o[68] *410:101 0
6 mstream_o[67] mstream_o[68] 6.09492e-05
*RES
1 *1890:Q mstream_o[68] 7.74057 
*END

*D_NET *85 0.00206155
*CONN
*P mstream_o[69] O
*I *1891:Q O *D sky130_fd_sc_hd__dfrtp_4
*CAP
1 mstream_o[69] 0.000706538
2 *1891:Q 0.000706538
3 mstream_o[69] mstream_o[70] 0.000184455
4 mstream_o[69] *422:DIODE 0.000123592
5 mstream_o[69] *362:8 8.8266e-05
6 busy_o mstream_o[69] 0.000106987
7 mstream_o[68] mstream_o[69] 0.000145173
*RES
1 *1891:Q mstream_o[69] 14.085 
*END

*D_NET *86 0.00225451
*CONN
*P mstream_o[6] O
*I *1828:Q O *D sky130_fd_sc_hd__dfrtp_4
*CAP
1 mstream_o[6] 0.000960786
2 *1828:Q 0.000960786
3 mstream_o[6] mstream_o[7] 0.000141923
4 busy_o mstream_o[6] 0.000130066
5 mstream_o[5] mstream_o[6] 6.09492e-05
*RES
1 *1828:Q mstream_o[6] 14.7272 
*END

*D_NET *87 0.00205433
*CONN
*P mstream_o[70] O
*I *1892:Q O *D sky130_fd_sc_hd__dfrtp_4
*CAP
1 mstream_o[70] 0.000909883
2 *1892:Q 0.000909883
3 mstream_o[70] mstream_o[71] 3.07371e-05
4 busy_o mstream_o[70] 1.93765e-05
5 mstream_o[69] mstream_o[70] 0.000184455
*RES
1 *1892:Q mstream_o[70] 13.5383 
*END

*D_NET *88 0.00181039
*CONN
*P mstream_o[71] O
*I *1893:Q O *D sky130_fd_sc_hd__dfrtp_4
*CAP
1 mstream_o[71] 0.000805858
2 *1893:Q 0.000805858
3 mstream_o[71] mstream_o[72] 6.09492e-05
4 busy_o mstream_o[71] 0.000106987
5 mstream_o[70] mstream_o[71] 3.07371e-05
*RES
1 *1893:Q mstream_o[71] 13.275 
*END

*D_NET *89 0.00223873
*CONN
*P mstream_o[72] O
*I *1894:Q O *D sky130_fd_sc_hd__dfrtp_4
*CAP
1 mstream_o[72] 0.000952894
2 *1894:Q 0.000952894
3 mstream_o[72] mstream_o[73] 0.000141923
4 busy_o mstream_o[72] 0.000130066
5 mstream_o[71] mstream_o[72] 6.09492e-05
*RES
1 *1894:Q mstream_o[72] 14.7272 
*END

*D_NET *90 0.0025154
*CONN
*P mstream_o[73] O
*I *1895:Q O *D sky130_fd_sc_hd__dfrtp_4
*CAP
1 mstream_o[73] 0.0011149
2 *1895:Q 0.0011149
3 mstream_o[73] mstream_o[74] 6.16929e-05
4 mstream_o[73] *406:182 8.1992e-05
5 mstream_o[73] *410:121 0
6 mstream_o[72] mstream_o[73] 0.000141923
*RES
1 *1895:Q mstream_o[73] 7.87903 
*END

*D_NET *91 0.00223656
*CONN
*P mstream_o[74] O
*I *1896:Q O *D sky130_fd_sc_hd__dfrtp_4
*CAP
1 mstream_o[74] 0.000951439
2 *1896:Q 0.000951439
3 mstream_o[74] mstream_o[75] 0.000141923
4 busy_o mstream_o[74] 0.000130066
5 mstream_o[73] mstream_o[74] 6.16929e-05
*RES
1 *1896:Q mstream_o[74] 14.7272 
*END

*D_NET *92 0.0018002
*CONN
*P mstream_o[75] O
*I *1897:Q O *D sky130_fd_sc_hd__dfrtp_4
*CAP
1 mstream_o[75] 0.000745173
2 *1897:Q 0.000745173
3 mstream_o[75] mstream_o[76] 6.09492e-05
4 busy_o mstream_o[75] 0.000106987
5 mstream_o[74] mstream_o[75] 0.000141923
*RES
1 *1897:Q mstream_o[75] 13.275 
*END

*D_NET *93 0.00223873
*CONN
*P mstream_o[76] O
*I *1898:Q O *D sky130_fd_sc_hd__dfrtp_4
*CAP
1 mstream_o[76] 0.000952894
2 *1898:Q 0.000952894
3 mstream_o[76] mstream_o[77] 0.000141923
4 busy_o mstream_o[76] 0.000130066
5 mstream_o[75] mstream_o[76] 6.09492e-05
*RES
1 *1898:Q mstream_o[76] 14.7272 
*END

*D_NET *94 0.00184598
*CONN
*P mstream_o[77] O
*I *1899:Q O *D sky130_fd_sc_hd__dfrtp_4
*CAP
1 mstream_o[77] 0.00076806
2 *1899:Q 0.00076806
3 mstream_o[77] mstream_o[78] 6.09492e-05
4 busy_o mstream_o[77] 0.000106987
5 mstream_o[76] mstream_o[77] 0.000141923
*RES
1 *1899:Q mstream_o[77] 13.62 
*END

*D_NET *95 0.00270171
*CONN
*P mstream_o[78] O
*I *1900:Q O *D sky130_fd_sc_hd__dfrtp_4
*CAP
1 mstream_o[78] 0.00122809
2 *1900:Q 0.00122809
3 mstream_o[78] mstream_o[79] 0.000145173
4 mstream_o[78] *406:182 3.94066e-05
5 mstream_o[78] *410:121 0
6 mstream_o[77] mstream_o[78] 6.09492e-05
*RES
1 *1900:Q mstream_o[78] 7.74057 
*END

*D_NET *96 0.0019031
*CONN
*P mstream_o[79] O
*I *1901:Q O *D sky130_fd_sc_hd__dfrtp_4
*CAP
1 mstream_o[79] 0.000794994
2 *1901:Q 0.000794994
3 mstream_o[79] mstream_o[80] 6.09492e-05
4 busy_o mstream_o[79] 0.000106987
5 mstream_o[78] mstream_o[79] 0.000145173
*RES
1 *1901:Q mstream_o[79] 13.965 
*END

*D_NET *97 0.00248112
*CONN
*P mstream_o[7] O
*I *1829:Q O *D sky130_fd_sc_hd__dfrtp_4
*CAP
1 mstream_o[7] 0.00105262
2 *1829:Q 0.00105262
3 mstream_o[7] mstream_o[8] 6.16929e-05
4 mstream_o[7] *357:20 8.7562e-05
5 mstream_o[6] mstream_o[7] 0.000141923
6 *2:13 mstream_o[7] 8.471e-05
*RES
1 *1829:Q mstream_o[7] 7.82077 
*END

*D_NET *98 0.00223133
*CONN
*P mstream_o[80] O
*I *1902:Q O *D sky130_fd_sc_hd__dfrtp_4
*CAP
1 mstream_o[80] 0.000949198
2 *1902:Q 0.000949198
3 mstream_o[80] mstream_o[81] 0.000141923
4 busy_o mstream_o[80] 0.000130066
5 mstream_o[79] mstream_o[80] 6.09492e-05
*RES
1 *1902:Q mstream_o[80] 14.7272 
*END

*D_NET *99 0.00182148
*CONN
*P mstream_o[81] O
*I *1903:Q O *D sky130_fd_sc_hd__dfrtp_4
*CAP
1 mstream_o[81] 0.00075581
2 *1903:Q 0.00075581
3 mstream_o[81] mstream_o[82] 6.09492e-05
4 busy_o mstream_o[81] 0.000106987
5 mstream_o[80] mstream_o[81] 0.000141923
*RES
1 *1903:Q mstream_o[81] 13.275 
*END

*D_NET *100 0.00220134
*CONN
*P mstream_o[82] O
*I *1904:Q O *D sky130_fd_sc_hd__dfrtp_4
*CAP
1 mstream_o[82] 0.000934202
2 *1904:Q 0.000934202
3 mstream_o[82] mstream_o[83] 0.000141923
4 busy_o mstream_o[82] 0.000130066
5 mstream_o[81] mstream_o[82] 6.09492e-05
*RES
1 *1904:Q mstream_o[82] 14.7272 
*END

*D_NET *101 0.00243253
*CONN
*P mstream_o[83] O
*I *1905:Q O *D sky130_fd_sc_hd__dfrtp_4
*CAP
1 mstream_o[83] 0.00111446
2 *1905:Q 0.00111446
3 mstream_o[83] mstream_o[84] 6.16929e-05
4 mstream_o[83] *406:182 0
5 mstream_o[83] *410:121 0
6 mstream_o[82] mstream_o[83] 0.000141923
*RES
1 *1905:Q mstream_o[83] 7.82077 
*END

*D_NET *102 0.00219918
*CONN
*P mstream_o[84] O
*I *1906:Q O *D sky130_fd_sc_hd__dfrtp_4
*CAP
1 mstream_o[84] 0.000932747
2 *1906:Q 0.000932747
3 mstream_o[84] mstream_o[85] 0.000141923
4 busy_o mstream_o[84] 0.000130066
5 mstream_o[83] mstream_o[84] 6.16929e-05
*RES
1 *1906:Q mstream_o[84] 14.7272 
*END

*D_NET *103 0.00182148
*CONN
*P mstream_o[85] O
*I *1907:Q O *D sky130_fd_sc_hd__dfrtp_4
*CAP
1 mstream_o[85] 0.00075581
2 *1907:Q 0.00075581
3 mstream_o[85] mstream_o[86] 6.09492e-05
4 busy_o mstream_o[85] 0.000106987
5 mstream_o[84] mstream_o[85] 0.000141923
*RES
1 *1907:Q mstream_o[85] 13.275 
*END

*D_NET *104 0.00223133
*CONN
*P mstream_o[86] O
*I *1908:Q O *D sky130_fd_sc_hd__dfrtp_4
*CAP
1 mstream_o[86] 0.000949198
2 *1908:Q 0.000949198
3 mstream_o[86] mstream_o[87] 0.000141923
4 busy_o mstream_o[86] 0.000130066
5 mstream_o[85] mstream_o[86] 6.09492e-05
*RES
1 *1908:Q mstream_o[86] 14.7272 
*END

*D_NET *105 0.00204373
*CONN
*P mstream_o[87] O
*I *1909:Q O *D sky130_fd_sc_hd__dfrtp_4
*CAP
1 mstream_o[87] 0.000601207
2 *1909:Q 0.000601207
3 mstream_o[87] mstream_o[88] 6.09492e-05
4 mstream_o[87] *449:DIODE 0.000310966
5 mstream_o[87] *1994:A 0.000197822
6 mstream_o[87] *408:6 2.26717e-05
7 busy_o mstream_o[87] 0.000106987
8 mstream_o[86] mstream_o[87] 0.000141923
*RES
1 *1909:Q mstream_o[87] 12.93 
*END

*D_NET *106 0.00265186
*CONN
*P mstream_o[88] O
*I *1910:Q O *D sky130_fd_sc_hd__dfrtp_4
*CAP
1 mstream_o[88] 0.00122287
2 *1910:Q 0.00122287
3 mstream_o[88] mstream_o[89] 0.000145173
4 mstream_o[88] mstream_o[91] 0
5 mstream_o[88] *410:141 0
6 mstream_o[87] mstream_o[88] 6.09492e-05
*RES
1 *1910:Q mstream_o[88] 7.74057 
*END

*D_NET *107 0.00179027
*CONN
*P mstream_o[89] O
*I *1911:Q O *D sky130_fd_sc_hd__dfrtp_4
*CAP
1 mstream_o[89] 0.000738581
2 *1911:Q 0.000738581
3 mstream_o[89] mstream_o[90] 6.09492e-05
4 busy_o mstream_o[89] 0.000106987
5 mstream_o[88] mstream_o[89] 0.000145173
*RES
1 *1911:Q mstream_o[89] 13.275 
*END

*D_NET *108 0.00225234
*CONN
*P mstream_o[8] O
*I *1830:Q O *D sky130_fd_sc_hd__dfrtp_4
*CAP
1 mstream_o[8] 0.000959331
2 *1830:Q 0.000959331
3 mstream_o[8] mstream_o[9] 0.000141923
4 busy_o mstream_o[8] 0.000130066
5 mstream_o[7] mstream_o[8] 6.16929e-05
*RES
1 *1830:Q mstream_o[8] 14.7272 
*END

*D_NET *109 0.00223133
*CONN
*P mstream_o[90] O
*I *1912:Q O *D sky130_fd_sc_hd__dfrtp_4
*CAP
1 mstream_o[90] 0.000949198
2 *1912:Q 0.000949198
3 mstream_o[90] mstream_o[91] 0.000141923
4 busy_o mstream_o[90] 0.000130066
5 mstream_o[89] mstream_o[90] 6.09492e-05
*RES
1 *1912:Q mstream_o[90] 14.7272 
*END

*D_NET *110 0.00208798
*CONN
*P mstream_o[91] O
*I *1913:Q O *D sky130_fd_sc_hd__dfrtp_4
*CAP
1 mstream_o[91] 0.000942182
2 *1913:Q 0.000942182
3 mstream_o[91] mstream_o[92] 6.16929e-05
4 mstream_o[91] mstream_o[93] 0
5 mstream_o[91] *408:81 0
6 mstream_o[91] *410:141 0
7 mstream_o[88] mstream_o[91] 0
8 mstream_o[90] mstream_o[91] 0.000141923
*RES
1 *1913:Q mstream_o[91] 6.57363 
*END

*D_NET *111 0.00222374
*CONN
*P mstream_o[92] O
*I *1914:Q O *D sky130_fd_sc_hd__dfrtp_4
*CAP
1 mstream_o[92] 0.000945031
2 *1914:Q 0.000945031
3 mstream_o[92] mstream_o[93] 0.000141923
4 busy_o mstream_o[92] 0.000130066
5 mstream_o[91] mstream_o[92] 6.16929e-05
*RES
1 *1914:Q mstream_o[92] 14.7272 
*END

*D_NET *112 0.00235608
*CONN
*P mstream_o[93] O
*I *1915:Q O *D sky130_fd_sc_hd__dfrtp_4
*CAP
1 mstream_o[93] 0.00107623
2 *1915:Q 0.00107623
3 mstream_o[93] mstream_o[94] 6.16929e-05
4 mstream_o[93] mstream_o[96] 0
5 mstream_o[93] *408:105 0
6 mstream_o[93] *408:117 0
7 mstream_o[93] *410:141 0
8 mstream_o[91] mstream_o[93] 0
9 mstream_o[92] mstream_o[93] 0.000141923
*RES
1 *1915:Q mstream_o[93] 7.82077 
*END

*D_NET *113 0.00222634
*CONN
*P mstream_o[94] O
*I *1916:Q O *D sky130_fd_sc_hd__dfrtp_4
*CAP
1 mstream_o[94] 0.000949824
2 *1916:Q 0.000949824
3 mstream_o[94] mstream_o[95] 0.000127725
4 mstream_o[94] mstream_o[96] 7.21141e-06
5 busy_o mstream_o[94] 0.000130066
6 mstream_o[93] mstream_o[94] 6.16929e-05
*RES
1 *1916:Q mstream_o[94] 14.7272 
*END

*D_NET *114 0.000632023
*CONN
*P mstream_o[95] O
*I *1917:Q O *D sky130_fd_sc_hd__dfrtp_4
*CAP
1 mstream_o[95] 0.000150575
2 *1917:Q 0.000150575
3 mstream_o[95] mstream_o[96] 0.000164565
4 busy_o mstream_o[95] 3.85835e-05
5 mstream_o[94] mstream_o[95] 0.000127725
*RES
1 *1917:Q mstream_o[95] 5.35677 
*END

*D_NET *115 0.00255021
*CONN
*P mstream_o[96] O
*I *1918:Q O *D sky130_fd_sc_hd__dfrtp_4
*CAP
1 mstream_o[96] 0.00117077
2 *1918:Q 0.00117077
3 mstream_o[96] mstream_o[97] 3.07371e-05
4 mstream_o[96] *1917:CLK 6.15576e-06
5 mstream_o[96] *408:117 0
6 mstream_o[93] mstream_o[96] 0
7 mstream_o[94] mstream_o[96] 7.21141e-06
8 mstream_o[95] mstream_o[96] 0.000164565
*RES
1 *1918:Q mstream_o[96] 6.5517 
*END

*D_NET *116 0.00186986
*CONN
*P mstream_o[97] O
*I *1919:Q O *D sky130_fd_sc_hd__dfrtp_4
*CAP
1 mstream_o[97] 0.000764953
2 *1919:Q 0.000764953
3 mstream_o[97] mstream_o[98] 0.000204054
4 mstream_o[97] *356:126 0
5 mstream_o[96] mstream_o[97] 3.07371e-05
6 *1:16 mstream_o[97] 0.000105159
*RES
1 *1919:Q mstream_o[97] 12.9883 
*END

*D_NET *117 0.00207975
*CONN
*P mstream_o[98] O
*I *1920:Q O *D sky130_fd_sc_hd__dfrtp_4
*CAP
1 mstream_o[98] 0.000913505
2 *1920:Q 0.000913505
3 mstream_o[98] mstream_o[99] 3.07371e-05
4 mstream_o[98] *356:126 0
5 mstream_o[97] mstream_o[98] 0.000204054
6 *1:16 mstream_o[98] 1.79483e-05
*RES
1 *1920:Q mstream_o[98] 13.2516 
*END

*D_NET *118 0.00181572
*CONN
*P mstream_o[99] O
*I *1921:Q O *D sky130_fd_sc_hd__dfrtp_4
*CAP
1 mstream_o[99] 0.000731655
2 *1921:Q 0.000731655
3 mstream_o[99] *356:130 0.000148883
4 mstream_o[99] *356:158 0
5 mstream_o[100] mstream_o[99] 6.76354e-05
6 mstream_o[98] mstream_o[99] 3.07371e-05
7 *1:16 mstream_o[99] 0.000105159
*RES
1 *1921:Q mstream_o[99] 12.9883 
*END

*D_NET *119 0.0018792
*CONN
*P mstream_o[9] O
*I *1831:Q O *D sky130_fd_sc_hd__dfrtp_4
*CAP
1 mstream_o[9] 0.000784673
2 *1831:Q 0.000784673
3 busy_o mstream_o[9] 0.000106987
4 mstream_o[10] mstream_o[9] 6.09492e-05
5 mstream_o[8] mstream_o[9] 0.000141923
*RES
1 *1831:Q mstream_o[9] 13.62 
*END

*D_NET *120 0.00429336
*CONN
*P nrst_i I
*I *1996:A I *D sky130_fd_sc_hd__buf_4
*CAP
1 nrst_i 0.0018439
2 *1996:A 0.0018439
3 *2:13 *1996:A 0.000605559
*RES
1 nrst_i *1996:A 43.42 
*END

*D_NET *121 0.00119414
*CONN
*P sstream_i[0] I
*I *1708:D_N I *D sky130_fd_sc_hd__nor4b_1
*CAP
1 sstream_i[0] 0.000437104
2 *1708:D_N 0.000437104
3 *1708:D_N *1709:D_N 9.6849e-05
4 *1708:D_N *1710:D_N 0.00022308
*RES
1 sstream_i[0] *1708:D_N 10.2918 
*END

*D_NET *122 0.00210333
*CONN
*P sstream_i[100] I
*I *1805:D_N I *D sky130_fd_sc_hd__nor4b_1
*CAP
1 sstream_i[100] 0.000741206
2 *1805:D_N 0.000741206
3 *1805:D_N *1804:D_N 9.6849e-05
4 *1805:D_N *1805:A 0.000187666
5 *1805:D_N *1805:B 6.33103e-05
6 *1805:D_N *1806:D_N 9.6849e-05
7 *1805:D_N *1949:A 2.10046e-05
8 *1805:D_N *363:16 0.000155242
*RES
1 sstream_i[100] *1805:D_N 14.8985 
*END

*D_NET *123 0.00157227
*CONN
*P sstream_i[101] I
*I *1806:D_N I *D sky130_fd_sc_hd__nor4b_1
*CAP
1 sstream_i[101] 0.000528629
2 *1806:D_N 0.000528629
3 *1806:D_N *432:DIODE 8.40213e-05
4 *1806:D_N *1807:D_N 9.57858e-05
5 *1806:D_N *1985:A 0.000103991
6 *1806:D_N *389:6 5.03424e-05
7 *1806:D_N *390:195 8.40269e-05
8 *1805:D_N *1806:D_N 9.6849e-05
*RES
1 sstream_i[101] *1806:D_N 12.3035 
*END

*D_NET *124 0.00199687
*CONN
*P sstream_i[102] I
*I *1807:D_N I *D sky130_fd_sc_hd__nor4b_1
*CAP
1 sstream_i[102] 0.000605466
2 *1807:D_N 0.000605466
3 *1807:D_N *456:DIODE 3.63206e-05
4 *1807:D_N *1807:A 0.000155497
5 *1807:D_N *1807:B 0.000119762
6 *1807:D_N *1808:D_N 9.6849e-05
7 *1807:D_N *414:144 0.000104334
8 *1807:D_N *416:39 0.000177392
9 *1806:D_N *1807:D_N 9.57858e-05
*RES
1 sstream_i[102] *1807:D_N 14.0285 
*END

*D_NET *125 0.00142619
*CONN
*P sstream_i[103] I
*I *1808:D_N I *D sky130_fd_sc_hd__nor4b_1
*CAP
1 sstream_i[103] 0.000616246
2 *1808:D_N 0.000616246
3 *1808:D_N *1809:D_N 9.6849e-05
4 *1807:D_N *1808:D_N 9.6849e-05
*RES
1 sstream_i[103] *1808:D_N 12.3035 
*END

*D_NET *126 0.00344059
*CONN
*P sstream_i[104] I
*I *1809:D_N I *D sky130_fd_sc_hd__nor4b_1
*CAP
1 sstream_i[104] 0.00116029
2 *1809:D_N 0.00116029
3 *1809:D_N *1810:D_N 9.6849e-05
4 *1809:D_N *1926:D 0.000249241
5 *1809:D_N *237:16 0.000504852
6 *1809:D_N *370:64 0
7 *1809:D_N *399:55 0.000168039
8 *1809:D_N *399:82 4.18603e-06
9 *1808:D_N *1809:D_N 9.6849e-05
*RES
1 sstream_i[104] *1809:D_N 12.1034 
*END

*D_NET *127 0.00142841
*CONN
*P sstream_i[105] I
*I *1810:D_N I *D sky130_fd_sc_hd__nor4b_1
*CAP
1 sstream_i[105] 0.000614006
2 *1810:D_N 0.000614006
3 *1810:D_N *1811:D_N 9.6849e-05
4 *1810:D_N *399:74 6.69608e-06
5 *1809:D_N *1810:D_N 9.6849e-05
*RES
1 sstream_i[105] *1810:D_N 12.3035 
*END

*D_NET *128 0.00290839
*CONN
*P sstream_i[106] I
*I *1811:D_N I *D sky130_fd_sc_hd__nor4b_1
*CAP
1 sstream_i[106] 0.00103506
2 *1811:D_N 0.00103506
3 *1811:D_N *1809:A 0.000277996
4 *1811:D_N *1811:A 4.31106e-05
5 *1811:D_N *1812:D_N 9.6849e-05
6 *1811:D_N *1814:D_N 0
7 *1811:D_N *237:16 0.000323468
8 *1810:D_N *1811:D_N 9.6849e-05
*RES
1 sstream_i[106] *1811:D_N 10.1394 
*END

*D_NET *129 0.00146873
*CONN
*P sstream_i[107] I
*I *1812:D_N I *D sky130_fd_sc_hd__nor4b_1
*CAP
1 sstream_i[107] 0.00061363
2 *1812:D_N 0.00061363
3 *1812:D_N *1813:D_N 9.6849e-05
4 *1812:D_N *399:92 4.77757e-05
5 *1811:D_N *1812:D_N 9.6849e-05
*RES
1 sstream_i[107] *1812:D_N 12.3035 
*END

*D_NET *130 0.00121177
*CONN
*P sstream_i[108] I
*I *1813:D_N I *D sky130_fd_sc_hd__nor4b_1
*CAP
1 sstream_i[108] 0.000509566
2 *1813:D_N 0.000509566
3 *1813:D_N *1814:D_N 9.57858e-05
4 *1812:D_N *1813:D_N 9.6849e-05
*RES
1 sstream_i[108] *1813:D_N 10.5785 
*END

*D_NET *131 0.00177723
*CONN
*P sstream_i[109] I
*I *1814:D_N I *D sky130_fd_sc_hd__nor4b_1
*CAP
1 sstream_i[109] 0.000699084
2 *1814:D_N 0.000699084
3 *1814:D_N *1815:D_N 9.6849e-05
4 *1814:D_N *1816:D_N 0
5 *1814:D_N *414:144 6.36275e-05
6 *1814:D_N *415:126 0.000122801
7 *1811:D_N *1814:D_N 0
8 *1813:D_N *1814:D_N 9.57858e-05
*RES
1 sstream_i[109] *1814:D_N 8.3175 
*END

*D_NET *132 0.00121353
*CONN
*P sstream_i[10] I
*I *1718:D_N I *D sky130_fd_sc_hd__nor4b_1
*CAP
1 sstream_i[10] 0.00049912
2 *1718:D_N 0.00049912
3 *1718:D_N *1717:D_N 9.6849e-05
4 *1718:D_N *1719:D_N 0.000106779
5 *1718:D_N *391:20 1.16578e-05
*RES
1 sstream_i[10] *1718:D_N 10.2918 
*END

*D_NET *133 0.00182452
*CONN
*P sstream_i[110] I
*I *1815:D_N I *D sky130_fd_sc_hd__nor4b_1
*CAP
1 sstream_i[110] 0.000716497
2 *1815:D_N 0.000716497
3 *1815:D_N *1815:A 3.75126e-05
4 *1815:D_N *1816:D_N 9.6849e-05
5 *1815:D_N *415:126 0.000160314
6 *1814:D_N *1815:D_N 9.6849e-05
*RES
1 sstream_i[110] *1815:D_N 14.3435 
*END

*D_NET *134 0.00265876
*CONN
*P sstream_i[111] I
*I *1816:D_N I *D sky130_fd_sc_hd__nor4b_1
*CAP
1 sstream_i[111] 0.00113305
2 *1816:D_N 0.00113305
3 *1816:D_N *1817:D_N 9.57858e-05
4 *1816:D_N *137:17 0
5 *1816:D_N *237:16 0.000192059
6 *1816:D_N *370:90 0
7 *1816:D_N *370:101 0
8 *1816:D_N *399:126 7.96104e-06
9 *1814:D_N *1816:D_N 0
10 *1815:D_N *1816:D_N 9.6849e-05
*RES
1 sstream_i[111] *1816:D_N 8.4473 
*END

*D_NET *135 0.00120021
*CONN
*P sstream_i[112] I
*I *1817:D_N I *D sky130_fd_sc_hd__nor4b_1
*CAP
1 sstream_i[112] 0.000503786
2 *1817:D_N 0.000503786
3 *1817:D_N *1818:D_N 9.6849e-05
4 *1816:D_N *1817:D_N 9.57858e-05
*RES
1 sstream_i[112] *1817:D_N 10.5785 
*END

*D_NET *136 0.00168326
*CONN
*P sstream_i[113] I
*I *1818:D_N I *D sky130_fd_sc_hd__nor4b_1
*CAP
1 sstream_i[113] 0.000491342
2 *1818:D_N 0.000491342
3 *1818:D_N *137:17 9.57858e-05
4 *1818:D_N *398:191 0.000272674
5 *1818:D_N *414:165 0.000235263
6 *1817:D_N *1818:D_N 9.6849e-05
*RES
1 sstream_i[113] *1818:D_N 12.3035 
*END

*D_NET *137 0.00606631
*CONN
*P sstream_i[114] I
*I *1819:D_N I *D sky130_fd_sc_hd__nor4b_1
*I *1821:A I *D sky130_fd_sc_hd__or2_4
*CAP
1 sstream_i[114] 0.00125681
2 *1819:D_N 0
3 *1821:A 0.000899245
4 *137:17 0.00215605
5 *1821:A *1814:C 8.23457e-05
6 *1821:A *1931:CLK 8.65961e-05
7 *1821:A *1931:D 0.000122766
8 *1821:A *1931:RESET_B 3.75715e-05
9 *1821:A *388:193 0.000192837
10 *1821:A *388:218 9.09788e-06
11 *1821:A *389:120 0.000130669
12 *1821:A *414:144 0
13 *1821:A *415:126 1.14169e-05
14 *137:17 sstream_o 4.95285e-06
15 *137:17 *1820:D_N 9.6849e-05
16 *137:17 *388:218 0.000494712
17 *137:17 *389:120 5.27885e-05
18 *137:17 *399:141 0.000131168
19 *137:17 *414:165 0
20 *137:17 *415:126 0
21 *137:17 *415:134 3.27592e-05
22 mstream_o[109] *1821:A 0.000123592
23 *1816:D_N *137:17 0
24 *1818:D_N *137:17 9.57858e-05
25 *1821:B *1821:A 4.82919e-05
*RES
1 sstream_i[114] *137:17 8.6875 
2 *137:17 *1821:A 19.38 
3 *137:17 *1819:D_N 3.6 
*END

*D_NET *138 0.00184101
*CONN
*P sstream_i[115] I
*I *1820:D_N I *D sky130_fd_sc_hd__nor4b_1
*CAP
1 sstream_i[115] 0.000743866
2 *1820:D_N 0.000743866
3 *1820:D_N sstream_o 9.57858e-05
4 *1820:D_N *1820:A 0.000160641
5 *137:17 *1820:D_N 9.6849e-05
*RES
1 sstream_i[115] *1820:D_N 14.5385 
*END

*D_NET *139 0.00333355
*CONN
*P sstream_i[11] I
*I *1719:D_N I *D sky130_fd_sc_hd__nor4b_1
*CAP
1 sstream_i[11] 0.00122215
2 *1719:D_N 0.00122215
3 *1719:D_N *1716:D_N 0
4 *1719:D_N *1719:B 8.65961e-05
5 *1719:D_N *1720:D_N 0.000193193
6 *1719:D_N *381:52 5.22283e-05
7 *1719:D_N *381:54 7.16268e-05
8 *1719:D_N *381:56 2.97004e-06
9 *1719:D_N *391:33 0.000147337
10 *1719:D_N *391:39 0.000228515
11 *1718:D_N *1719:D_N 0.000106779
*RES
1 sstream_i[11] *1719:D_N 11.2519 
*END

*D_NET *140 0.00230862
*CONN
*P sstream_i[12] I
*I *1720:D_N I *D sky130_fd_sc_hd__nor4b_1
*CAP
1 sstream_i[12] 0.000903246
2 *1720:D_N 0.000903246
3 *1720:D_N *1720:B 4.99619e-05
4 *1720:D_N *1720:C 2.75229e-05
5 *1720:D_N *1721:D_N 0.000107842
6 *1720:D_N *1722:D_N 0
7 *1720:D_N *381:50 6.80175e-05
8 *1720:D_N *381:52 1.54318e-05
9 *1720:D_N *382:33 3.57938e-05
10 *1720:D_N *391:20 0
11 *1720:D_N *391:33 4.36573e-06
12 *1719:D_N *1720:D_N 0.000193193
*RES
1 sstream_i[12] *1720:D_N 19.6098 
*END

*D_NET *141 0.00128636
*CONN
*P sstream_i[13] I
*I *1721:D_N I *D sky130_fd_sc_hd__nor4b_1
*CAP
1 sstream_i[13] 0.000530431
2 *1721:D_N 0.000530431
3 *1721:D_N *1722:D_N 0.000106779
4 *1721:D_N *381:28 1.08758e-05
5 *1720:D_N *1721:D_N 0.000107842
*RES
1 sstream_i[13] *1721:D_N 10.9068 
*END

*D_NET *142 0.00296288
*CONN
*P sstream_i[14] I
*I *1722:D_N I *D sky130_fd_sc_hd__nor4b_1
*CAP
1 sstream_i[14] 0.000944994
2 *1722:D_N 0.000944994
3 *1722:D_N *1723:D_N 0.000258212
4 *1722:D_N *1835:D 0
5 *1722:D_N *1959:A 0.000118513
6 *1722:D_N *381:18 0.000325343
7 *1722:D_N *381:46 8.8266e-05
8 *1722:D_N *382:18 8.91837e-05
9 *1722:D_N *382:20 8.65961e-05
10 *1720:D_N *1722:D_N 0
11 *1721:D_N *1722:D_N 0.000106779
*RES
1 sstream_i[14] *1722:D_N 10.6558 
*END

*D_NET *143 0.00170582
*CONN
*P sstream_i[15] I
*I *1723:D_N I *D sky130_fd_sc_hd__nor4b_1
*CAP
1 sstream_i[15] 0.000668728
2 *1723:D_N 0.000668728
3 *1723:D_N *1723:A 9.09788e-06
4 *1723:D_N *1724:D_N 0.000101059
5 *1723:D_N *381:18 0
6 *1723:D_N *391:10 0
7 *1722:D_N *1723:D_N 0.000258212
*RES
1 sstream_i[15] *1723:D_N 6.37097 
*END

*D_NET *144 0.00130709
*CONN
*P sstream_i[16] I
*I *1724:D_N I *D sky130_fd_sc_hd__nor4b_1
*CAP
1 sstream_i[16] 0.000382707
2 *1724:D_N 0.000382707
3 *1724:D_N *1725:D_N 0.000440616
4 *1723:D_N *1724:D_N 0.000101059
*RES
1 sstream_i[16] *1724:D_N 10.5785 
*END

*D_NET *145 0.00230808
*CONN
*P sstream_i[17] I
*I *1725:D_N I *D sky130_fd_sc_hd__nor4b_1
*CAP
1 sstream_i[17] 0.000583689
2 *1725:D_N 0.000583689
3 *1725:D_N *1724:A 0.000146613
4 *1725:D_N *1724:B 0.000196669
5 *1725:D_N *1725:B 0.000107205
6 *1725:D_N *1726:D_N 9.57858e-05
7 *1725:D_N *383:37 0
8 *1725:D_N *392:46 0.000153816
9 *1724:D_N *1725:D_N 0.000440616
*RES
1 sstream_i[17] *1725:D_N 14.8535 
*END

*D_NET *146 0.00179547
*CONN
*P sstream_i[18] I
*I *1726:D_N I *D sky130_fd_sc_hd__nor4b_1
*CAP
1 sstream_i[18] 0.000723929
2 *1726:D_N 0.000723929
3 *1726:D_N *1727:D_N 9.6849e-05
4 *1726:D_N *392:36 0.000154977
5 *1725:D_N *1726:D_N 9.57858e-05
*RES
1 sstream_i[18] *1726:D_N 14.0285 
*END

*D_NET *147 0.00141421
*CONN
*P sstream_i[19] I
*I *1727:D_N I *D sky130_fd_sc_hd__nor4b_1
*CAP
1 sstream_i[19] 0.000610258
2 *1727:D_N 0.000610258
3 *1727:D_N *1728:D_N 9.6849e-05
4 *1726:D_N *1727:D_N 9.6849e-05
*RES
1 sstream_i[19] *1727:D_N 12.3035 
*END

*D_NET *148 0.00119848
*CONN
*P sstream_i[1] I
*I *1709:D_N I *D sky130_fd_sc_hd__nor4b_1
*CAP
1 sstream_i[1] 0.000496029
2 *1709:D_N 0.000496029
3 *1709:D_N *1710:D_N 0.000109569
4 *1709:D_N *1711:D_N 0
5 *1708:D_N *1709:D_N 9.6849e-05
*RES
1 sstream_i[1] *1709:D_N 10.5785 
*END

*D_NET *149 0.00209612
*CONN
*P sstream_i[20] I
*I *1728:D_N I *D sky130_fd_sc_hd__nor4b_1
*CAP
1 sstream_i[20] 0.000911585
2 *1728:D_N 0.000911585
3 *1728:D_N *1729:D_N 9.6849e-05
4 *1728:D_N *381:18 3.96263e-05
5 *1728:D_N *382:18 3.96263e-05
6 *1727:D_N *1728:D_N 9.6849e-05
*RES
1 sstream_i[20] *1728:D_N 6.6623 
*END

*D_NET *150 0.00141421
*CONN
*P sstream_i[21] I
*I *1729:D_N I *D sky130_fd_sc_hd__nor4b_1
*CAP
1 sstream_i[21] 0.000610258
2 *1729:D_N 0.000610258
3 *1729:D_N *1730:D_N 9.6849e-05
4 *1728:D_N *1729:D_N 9.6849e-05
*RES
1 sstream_i[21] *1729:D_N 12.3035 
*END

*D_NET *151 0.00180311
*CONN
*P sstream_i[22] I
*I *1730:D_N I *D sky130_fd_sc_hd__nor4b_1
*CAP
1 sstream_i[22] 0.000727489
2 *1730:D_N 0.000727489
3 *1730:D_N *1730:A 0.000155497
4 *1730:D_N *1731:D_N 9.57858e-05
5 *1729:D_N *1730:D_N 9.6849e-05
*RES
1 sstream_i[22] *1730:D_N 14.0285 
*END

*D_NET *152 0.00143554
*CONN
*P sstream_i[23] I
*I *1731:D_N I *D sky130_fd_sc_hd__nor4b_1
*CAP
1 sstream_i[23] 0.000621452
2 *1731:D_N 0.000621452
3 *1731:D_N *1732:D_N 9.6849e-05
4 *1730:D_N *1731:D_N 9.57858e-05
*RES
1 sstream_i[23] *1731:D_N 12.3035 
*END

*D_NET *153 0.00179907
*CONN
*P sstream_i[24] I
*I *1732:D_N I *D sky130_fd_sc_hd__nor4b_1
*CAP
1 sstream_i[24] 0.000725468
2 *1732:D_N 0.000725468
3 *1732:D_N *1732:A 0.000155497
4 *1732:D_N *1733:D_N 9.57858e-05
5 *1731:D_N *1732:D_N 9.6849e-05
*RES
1 sstream_i[24] *1732:D_N 14.0285 
*END

*D_NET *154 0.00143846
*CONN
*P sstream_i[25] I
*I *1733:D_N I *D sky130_fd_sc_hd__nor4b_1
*CAP
1 sstream_i[25] 0.000612975
2 *1733:D_N 0.000612975
3 *1733:D_N *1734:D_N 9.6849e-05
4 *1733:D_N *1969:A 1.9872e-05
5 *1732:D_N *1733:D_N 9.57858e-05
*RES
1 sstream_i[25] *1733:D_N 12.3035 
*END

*D_NET *155 0.00178966
*CONN
*P sstream_i[26] I
*I *1734:D_N I *D sky130_fd_sc_hd__nor4b_1
*CAP
1 sstream_i[26] 0.000678319
2 *1734:D_N 0.000678319
3 *1734:D_N *435:DIODE 3.45588e-05
4 *1734:D_N *1734:A 8.5002e-05
5 *1734:D_N *1734:B 0.000119762
6 *1734:D_N *1735:D_N 9.6849e-05
7 *1733:D_N *1734:D_N 9.6849e-05
*RES
1 sstream_i[26] *1734:D_N 14.0285 
*END

*D_NET *156 0.00182011
*CONN
*P sstream_i[27] I
*I *1735:D_N I *D sky130_fd_sc_hd__nor4b_1
*CAP
1 sstream_i[27] 0.00061216
2 *1735:D_N 0.00061216
3 *1735:D_N *444:DIODE 9.93686e-06
4 *1735:D_N *1736:D_N 9.57858e-05
5 *1735:D_N *1978:A 3.13354e-05
6 *1735:D_N *392:14 0.000204462
7 *1735:D_N *393:6 0.000123955
8 *1735:D_N *416:173 3.34702e-05
9 *1734:D_N *1735:D_N 9.6849e-05
*RES
1 sstream_i[27] *1735:D_N 12.5135 
*END

*D_NET *157 0.00192658
*CONN
*P sstream_i[28] I
*I *1736:D_N I *D sky130_fd_sc_hd__nor4b_1
*CAP
1 sstream_i[28] 0.000728748
2 *1736:D_N 0.000728748
3 *1736:D_N *1736:A 3.1226e-05
4 *1736:D_N *1736:B 2.26862e-05
5 *1736:D_N *1736:C 1.19928e-05
6 *1736:D_N *1737:D_N 9.6849e-05
7 *1736:D_N *381:6 0.00012438
8 *1736:D_N *416:165 8.61608e-05
9 *1735:D_N *1736:D_N 9.57858e-05
*RES
1 sstream_i[28] *1736:D_N 14.1335 
*END

*D_NET *158 0.00183486
*CONN
*P sstream_i[29] I
*I *1737:D_N I *D sky130_fd_sc_hd__nor4b_1
*CAP
1 sstream_i[29] 0.000751715
2 *1737:D_N 0.000751715
3 *1737:D_N *1738:D_N 9.57858e-05
4 *1737:D_N *1980:A 3.00381e-05
5 *1737:D_N *394:10 8.82494e-05
6 *1737:D_N *400:48 2.05056e-05
7 *1736:D_N *1737:D_N 9.6849e-05
*RES
1 sstream_i[29] *1737:D_N 12.4085 
*END

*D_NET *159 0.00259135
*CONN
*P sstream_i[2] I
*I *1710:D_N I *D sky130_fd_sc_hd__nor4b_1
*CAP
1 sstream_i[2] 0.000855577
2 *1710:D_N 0.000855577
3 *1710:D_N *1708:A 8.26971e-05
4 *1710:D_N *1708:C 0.000122797
5 *1710:D_N *1710:A 8.65961e-05
6 *1710:D_N *1710:C 0.000160641
7 *1710:D_N *1711:D_N 7.3799e-05
8 *1710:D_N *1822:D 2.10152e-05
9 *1708:D_N *1710:D_N 0.00022308
10 *1709:D_N *1710:D_N 0.000109569
*RES
1 sstream_i[2] *1710:D_N 17.362 
*END

*D_NET *160 0.00196687
*CONN
*P sstream_i[30] I
*I *1738:D_N I *D sky130_fd_sc_hd__nor4b_1
*CAP
1 sstream_i[30] 0.000684563
2 *1738:D_N 0.000684563
3 *1738:D_N *1738:B 8.97951e-05
4 *1738:D_N *1986:A 0.000220804
5 *1738:D_N *394:29 3.41508e-05
6 *1738:D_N *400:20 0.00013322
7 *1738:D_N *400:69 2.39856e-05
8 *1737:D_N *1738:D_N 9.57858e-05
*RES
1 sstream_i[30] *1738:D_N 14.8535 
*END

*D_NET *161 0.00187093
*CONN
*P sstream_i[31] I
*I *1986:A I *D sky130_fd_sc_hd__clkbuf_4
*CAP
1 sstream_i[31] 0.000585201
2 *1986:A 0.000585201
3 *1986:A *1739:D_N 0.000352482
4 *1986:A *400:20 0.000122801
5 *1986:A *400:24 4.43871e-06
6 *1738:D_N *1986:A 0.000220804
*RES
1 sstream_i[31] *1986:A 8.2725 
*END

*D_NET *162 0.00287266
*CONN
*P sstream_i[32] I
*I *1739:D_N I *D sky130_fd_sc_hd__nor4b_1
*CAP
1 sstream_i[32] 0.000872413
2 *1739:D_N 0.000872413
3 *1739:D_N *1739:A 0.000269827
4 *1739:D_N *1739:B 4.01749e-05
5 *1739:D_N *1739:C 0.000196572
6 *1739:D_N *1740:D_N 0.000146319
7 *1739:D_N *1741:D_N 0
8 *1739:D_N *384:66 1.92979e-05
9 *1739:D_N *394:47 7.94912e-05
10 *1739:D_N *400:82 1.79536e-05
11 *1739:D_N *416:163 5.71181e-06
12 *1986:A *1739:D_N 0.000352482
*RES
1 sstream_i[32] *1739:D_N 9.64517 
*END

*D_NET *163 0.00164163
*CONN
*P sstream_i[33] I
*I *1740:D_N I *D sky130_fd_sc_hd__nor4b_1
*CAP
1 sstream_i[33] 0.000571412
2 *1740:D_N 0.000571412
3 *1740:D_N *1741:D_N 0.000352482
4 *1739:D_N *1740:D_N 0.000146319
*RES
1 sstream_i[33] *1740:D_N 8.3175 
*END

*D_NET *164 0.0026461
*CONN
*P sstream_i[34] I
*I *1741:D_N I *D sky130_fd_sc_hd__nor4b_1
*CAP
1 sstream_i[34] 0.000871826
2 *1741:D_N 0.000871826
3 *1741:D_N *1742:D_N 9.6849e-05
4 *1741:D_N *384:66 7.75341e-05
5 *1741:D_N *394:68 1.79536e-05
6 *1741:D_N *400:82 7.91828e-05
7 *1741:D_N *403:66 0.000278443
8 *1739:D_N *1741:D_N 0
9 *1740:D_N *1741:D_N 0.000352482
*RES
1 sstream_i[34] *1741:D_N 9.2119 
*END

*D_NET *165 0.00141575
*CONN
*P sstream_i[35] I
*I *1742:D_N I *D sky130_fd_sc_hd__nor4b_1
*CAP
1 sstream_i[35] 0.000611026
2 *1742:D_N 0.000611026
3 *1742:D_N *1743:D_N 9.6849e-05
4 *1741:D_N *1742:D_N 9.6849e-05
*RES
1 sstream_i[35] *1742:D_N 12.3035 
*END

*D_NET *166 0.00295124
*CONN
*P sstream_i[36] I
*I *1743:D_N I *D sky130_fd_sc_hd__nor4b_1
*CAP
1 sstream_i[36] 0.00100082
2 *1743:D_N 0.00100082
3 *1743:D_N *1743:A 8.40213e-05
4 *1743:D_N *1744:D_N 9.6849e-05
5 *1743:D_N *394:81 0.000183738
6 *1743:D_N *394:94 0.000141869
7 *1743:D_N *403:54 0.0001059
8 *1743:D_N *403:56 0.000230869
9 *1743:D_N *403:58 9.50342e-06
10 *1742:D_N *1743:D_N 9.6849e-05
*RES
1 sstream_i[36] *1743:D_N 10.6558 
*END

*D_NET *167 0.00142934
*CONN
*P sstream_i[37] I
*I *1744:D_N I *D sky130_fd_sc_hd__nor4b_1
*CAP
1 sstream_i[37] 0.000611461
2 *1744:D_N 0.000611461
3 *1744:D_N *1745:D_N 0.000109569
4 *1744:D_N *1746:D_N 0
5 *1743:D_N *1744:D_N 9.6849e-05
*RES
1 sstream_i[37] *1744:D_N 12.3035 
*END

*D_NET *168 0.00219059
*CONN
*P sstream_i[38] I
*I *1745:D_N I *D sky130_fd_sc_hd__nor4b_1
*CAP
1 sstream_i[38] 0.000860048
2 *1745:D_N 0.000860048
3 *1745:D_N *1745:A 0.000122435
4 *1745:D_N *1745:C 4.66108e-05
5 *1745:D_N *1746:D_N 7.3799e-05
6 *1745:D_N *394:100 0.000118081
7 *1744:D_N *1745:D_N 0.000109569
*RES
1 sstream_i[38] *1745:D_N 17.152 
*END

*D_NET *169 0.0014275
*CONN
*P sstream_i[39] I
*I *1746:D_N I *D sky130_fd_sc_hd__nor4b_1
*CAP
1 sstream_i[39] 0.000610871
2 *1746:D_N 0.000610871
3 *1746:D_N *1747:D_N 9.6849e-05
4 *1746:D_N *394:134 3.51072e-05
5 *1744:D_N *1746:D_N 0
6 *1745:D_N *1746:D_N 7.3799e-05
*RES
1 sstream_i[39] *1746:D_N 12.3035 
*END

*D_NET *170 0.00137776
*CONN
*P sstream_i[3] I
*I *1711:D_N I *D sky130_fd_sc_hd__nor4b_1
*CAP
1 sstream_i[3] 0.000583
2 *1711:D_N 0.000583
3 *1711:D_N *1712:D_N 0.000105272
4 *1711:D_N *1713:D_N 3.26889e-05
5 *1709:D_N *1711:D_N 0
6 *1710:D_N *1711:D_N 7.3799e-05
*RES
1 sstream_i[3] *1711:D_N 10.9068 
*END

*D_NET *171 0.00120093
*CONN
*P sstream_i[40] I
*I *1747:D_N I *D sky130_fd_sc_hd__nor4b_1
*CAP
1 sstream_i[40] 0.000470542
2 *1747:D_N 0.000470542
3 *1747:D_N *1748:D_N 9.6849e-05
4 *1747:D_N *394:157 1.61831e-05
5 *1747:D_N *403:33 4.99619e-05
6 *1746:D_N *1747:D_N 9.6849e-05
*RES
1 sstream_i[40] *1747:D_N 10.5785 
*END

*D_NET *172 0.00369709
*CONN
*P sstream_i[41] I
*I *1748:D_N I *D sky130_fd_sc_hd__nor4b_1
*CAP
1 sstream_i[41] 0.00097128
2 *1748:D_N 0.00097128
3 *1748:D_N *1748:A 4.77719e-05
4 *1748:D_N *1749:D_N 0.000806351
5 *1748:D_N *400:82 0.000496522
6 *1748:D_N *403:46 7.09921e-05
7 *1748:D_N *403:48 0.000115847
8 *1748:D_N *403:50 5.53249e-06
9 *1748:D_N *416:163 0.000114662
10 *1747:D_N *1748:D_N 9.6849e-05
*RES
1 sstream_i[41] *1748:D_N 12.409 
*END

*D_NET *173 0.00270146
*CONN
*P sstream_i[42] I
*I *1749:D_N I *D sky130_fd_sc_hd__nor4b_1
*CAP
1 sstream_i[42] 0.000799447
2 *1749:D_N 0.000799447
3 *1749:D_N *1749:A 8.40213e-05
4 *1749:D_N *1749:C 4.41506e-05
5 *1749:D_N *1750:D_N 0.000145902
6 *1749:D_N *394:147 0
7 *1749:D_N *400:82 2.2142e-05
8 *1749:D_N *403:33 0
9 *1748:D_N *1749:D_N 0.000806351
*RES
1 sstream_i[42] *1749:D_N 9.2119 
*END

*D_NET *174 0.00169778
*CONN
*P sstream_i[43] I
*I *1750:D_N I *D sky130_fd_sc_hd__nor4b_1
*CAP
1 sstream_i[43] 0.000699552
2 *1750:D_N 0.000699552
3 *1750:D_N *1751:D_N 9.6849e-05
4 *1750:D_N *403:33 5.59243e-05
5 *1749:D_N *1750:D_N 0.000145902
*RES
1 sstream_i[43] *1750:D_N 9.0825 
*END

*D_NET *175 0.0012428
*CONN
*P sstream_i[44] I
*I *1751:D_N I *D sky130_fd_sc_hd__nor4b_1
*CAP
1 sstream_i[44] 0.000524549
2 *1751:D_N 0.000524549
3 *1751:D_N *1752:D_N 9.6849e-05
4 *1751:D_N *1964:A 0
5 *1750:D_N *1751:D_N 9.6849e-05
*RES
1 sstream_i[44] *1751:D_N 10.5785 
*END

*D_NET *176 0.00147163
*CONN
*P sstream_i[45] I
*I *1752:D_N I *D sky130_fd_sc_hd__nor4b_1
*CAP
1 sstream_i[45] 0.000639497
2 *1752:D_N 0.000639497
3 *1752:D_N *1753:D_N 9.57858e-05
4 *1752:D_N *1964:A 0
5 *1751:D_N *1752:D_N 9.6849e-05
*RES
1 sstream_i[45] *1752:D_N 12.3035 
*END

*D_NET *177 0.0031482
*CONN
*P sstream_i[46] I
*I *1753:D_N I *D sky130_fd_sc_hd__nor4b_1
*CAP
1 sstream_i[46] 0.001064
2 *1753:D_N 0.001064
3 *1753:D_N *1750:B 7.9642e-06
4 *1753:D_N *1751:C 4.77719e-05
5 *1753:D_N *1753:A 1.91597e-05
6 *1753:D_N *1754:D_N 9.6849e-05
7 *1753:D_N *1866:D 8.23457e-05
8 *1753:D_N *384:34 0.000104671
9 *1753:D_N *385:81 0.000184444
10 *1753:D_N *395:32 0.000205857
11 *1753:D_N *395:58 0.000137577
12 *1753:D_N *411:57 2.51754e-05
13 *1753:D_N *411:59 1.25877e-05
14 *1752:D_N *1753:D_N 9.57858e-05
*RES
1 sstream_i[46] *1753:D_N 10.9108 
*END

*D_NET *178 0.00164576
*CONN
*P sstream_i[47] I
*I *1754:D_N I *D sky130_fd_sc_hd__nor4b_1
*CAP
1 sstream_i[47] 0.000546718
2 *1754:D_N 0.000546718
3 *1754:D_N *1755:D_N 0.000109569
4 *1754:D_N *1756:D_N 0
5 *1754:D_N *1963:A 0
6 *1754:D_N *359:8 0.00034591
7 *1753:D_N *1754:D_N 9.6849e-05
*RES
1 sstream_i[47] *1754:D_N 12.3035 
*END

*D_NET *179 0.00226742
*CONN
*P sstream_i[48] I
*I *1755:D_N I *D sky130_fd_sc_hd__nor4b_1
*CAP
1 sstream_i[48] 0.000768385
2 *1755:D_N 0.000768385
3 *1755:D_N *1755:A 0.000156765
4 *1755:D_N *1755:C 4.77757e-05
5 *1755:D_N *1756:D_N 7.3799e-05
6 *1755:D_N *1963:A 0
7 *1755:D_N *1964:A 0
8 *1755:D_N *360:12 0.000342741
9 *1754:D_N *1755:D_N 0.000109569
*RES
1 sstream_i[48] *1755:D_N 17.152 
*END

*D_NET *180 0.00148905
*CONN
*P sstream_i[49] I
*I *1756:D_N I *D sky130_fd_sc_hd__nor4b_1
*CAP
1 sstream_i[49] 0.000628374
2 *1756:D_N 0.000628374
3 *1756:D_N *1757:D_N 0.000109569
4 *1756:D_N *1758:D_N 0
5 *1756:D_N *1963:A 0
6 *1756:D_N *411:47 4.89295e-05
7 *1754:D_N *1756:D_N 0
8 *1755:D_N *1756:D_N 7.3799e-05
*RES
1 sstream_i[49] *1756:D_N 12.3035 
*END

*D_NET *181 0.00182948
*CONN
*P sstream_i[4] I
*I *1712:D_N I *D sky130_fd_sc_hd__nor4b_1
*CAP
1 sstream_i[4] 0.000655038
2 *1712:D_N 0.000655038
3 *1712:D_N *1713:D_N 0.000414136
4 *1712:D_N *391:68 0
5 *1711:D_N *1712:D_N 0.000105272
*RES
1 sstream_i[4] *1712:D_N 8.13003 
*END

*D_NET *182 0.00216803
*CONN
*P sstream_i[50] I
*I *1757:D_N I *D sky130_fd_sc_hd__nor4b_1
*CAP
1 sstream_i[50] 0.000911617
2 *1757:D_N 0.000911617
3 *1757:D_N *1757:A 0.000155601
4 *1757:D_N *1757:B 5.83121e-06
5 *1757:D_N *1758:D_N 7.3799e-05
6 *1757:D_N *1963:A 0
7 *1756:D_N *1757:D_N 0.000109569
*RES
1 sstream_i[50] *1757:D_N 17.152 
*END

*D_NET *183 0.00133298
*CONN
*P sstream_i[51] I
*I *1758:D_N I *D sky130_fd_sc_hd__nor4b_1
*CAP
1 sstream_i[51] 0.000576203
2 *1758:D_N 0.000576203
3 *1758:D_N *1759:D_N 0.000106779
4 *1758:D_N *1963:A 0
5 *1756:D_N *1758:D_N 0
6 *1757:D_N *1758:D_N 7.3799e-05
*RES
1 sstream_i[51] *1758:D_N 10.8018 
*END

*D_NET *184 0.0026549
*CONN
*P sstream_i[52] I
*I *1759:D_N I *D sky130_fd_sc_hd__nor4b_1
*CAP
1 sstream_i[52] 0.000955528
2 *1759:D_N 0.000955528
3 *1759:D_N *1758:C 4.77719e-05
4 *1759:D_N *1760:D_N 9.6849e-05
5 *1759:D_N *1873:D 1.91597e-05
6 *1759:D_N *384:34 0.000196303
7 *1759:D_N *395:115 5.16418e-05
8 *1759:D_N *395:128 0.000142994
9 *1759:D_N *411:30 8.23457e-05
10 *1759:D_N *416:163 0
11 *1758:D_N *1759:D_N 0.000106779
*RES
1 sstream_i[52] *1759:D_N 9.2119 
*END

*D_NET *185 0.00150612
*CONN
*P sstream_i[53] I
*I *1760:D_N I *D sky130_fd_sc_hd__nor4b_1
*CAP
1 sstream_i[53] 0.000589685
2 *1760:D_N 0.000589685
3 *1760:D_N *1761:D_N 9.6849e-05
4 *1760:D_N *1997:A 4.66108e-05
5 *1760:D_N *411:6 8.64421e-05
6 *1759:D_N *1760:D_N 9.6849e-05
*RES
1 sstream_i[53] *1760:D_N 12.3035 
*END

*D_NET *186 0.00173295
*CONN
*P sstream_i[54] I
*I *1761:D_N I *D sky130_fd_sc_hd__nor4b_1
*CAP
1 sstream_i[54] 0.000710827
2 *1761:D_N 0.000710827
3 *1761:D_N *452:DIODE 6.34721e-05
4 *1761:D_N *1761:B 5.83121e-06
5 *1761:D_N *1761:C 4.82919e-05
6 *1761:D_N *1762:D_N 9.6849e-05
7 *1760:D_N *1761:D_N 9.6849e-05
*RES
1 sstream_i[54] *1761:D_N 14.0285 
*END

*D_NET *187 0.00169549
*CONN
*P sstream_i[55] I
*I *1762:D_N I *D sky130_fd_sc_hd__nor4b_1
*CAP
1 sstream_i[55] 0.00049871
2 *1762:D_N 0.00049871
3 *1762:D_N *1762:C 7.50252e-05
4 *1762:D_N *1763:D_N 9.57858e-05
5 *1762:D_N *394:157 0.000196846
6 *1762:D_N *403:33 0.000233561
7 *1761:D_N *1762:D_N 9.6849e-05
*RES
1 sstream_i[55] *1762:D_N 12.3035 
*END

*D_NET *188 0.00127857
*CONN
*P sstream_i[56] I
*I *1763:D_N I *D sky130_fd_sc_hd__nor4b_1
*CAP
1 sstream_i[56] 0.000492287
2 *1763:D_N 0.000492287
3 *1763:D_N *1764:D_N 9.6849e-05
4 *1763:D_N *1989:A 3.50562e-05
5 *1763:D_N *403:6 6.63089e-05
6 *1762:D_N *1763:D_N 9.57858e-05
*RES
1 sstream_i[56] *1763:D_N 10.6835 
*END

*D_NET *189 0.00238141
*CONN
*P sstream_i[57] I
*I *1764:D_N I *D sky130_fd_sc_hd__nor4b_1
*CAP
1 sstream_i[57] 0.000963278
2 *1764:D_N 0.000963278
3 *1764:D_N *1764:A 8.65961e-05
4 *1764:D_N *1764:C 8.77516e-05
5 *1764:D_N *1765:D_N 9.57858e-05
6 *1764:D_N *1966:A 2.93678e-05
7 *1764:D_N *384:18 4.9968e-05
8 *1764:D_N *384:20 8.53113e-06
9 *1763:D_N *1764:D_N 9.6849e-05
*RES
1 sstream_i[57] *1764:D_N 19.0035 
*END

*D_NET *190 0.00121959
*CONN
*P sstream_i[58] I
*I *1765:D_N I *D sky130_fd_sc_hd__nor4b_1
*CAP
1 sstream_i[58] 0.000513478
2 *1765:D_N 0.000513478
3 *1765:D_N *1766:D_N 9.6849e-05
4 *1765:D_N *1966:A 0
5 *1764:D_N *1765:D_N 9.57858e-05
*RES
1 sstream_i[58] *1765:D_N 10.5785 
*END

*D_NET *191 0.00247522
*CONN
*P sstream_i[59] I
*I *1766:D_N I *D sky130_fd_sc_hd__nor4b_1
*CAP
1 sstream_i[59] 0.000954899
2 *1766:D_N 0.000954899
3 *1766:D_N *1765:C 1.88602e-05
4 *1766:D_N *1766:B 0.000146757
5 *1766:D_N *1767:D_N 9.6849e-05
6 *1766:D_N *1880:D 0.00020149
7 *1766:D_N *237:14 4.61701e-06
8 *1765:D_N *1766:D_N 9.6849e-05
*RES
1 sstream_i[59] *1766:D_N 8.0321 
*END

*D_NET *192 0.00276803
*CONN
*P sstream_i[5] I
*I *1713:D_N I *D sky130_fd_sc_hd__nor4b_1
*CAP
1 sstream_i[5] 0.000887191
2 *1713:D_N 0.000887191
3 *1713:D_N *1711:C 0.000122797
4 *1713:D_N *1713:A 8.65961e-05
5 *1713:D_N *1713:C 3.24882e-05
6 *1713:D_N *1714:D_N 9.6849e-05
7 *1713:D_N *1825:D 0.000194962
8 *1713:D_N *382:51 1.31297e-05
9 *1713:D_N *391:68 0
10 *1711:D_N *1713:D_N 3.26889e-05
11 *1712:D_N *1713:D_N 0.000414136
*RES
1 sstream_i[5] *1713:D_N 15.0242 
*END

*D_NET *193 0.00191014
*CONN
*P sstream_i[60] I
*I *1767:D_N I *D sky130_fd_sc_hd__nor4b_1
*CAP
1 sstream_i[60] 0.000667487
2 *1767:D_N 0.000667487
3 *1767:D_N *1767:B 0.000119762
4 *1767:D_N *1767:C 2.75229e-05
5 *1767:D_N *1768:D_N 9.6849e-05
6 *1767:D_N *1966:A 0
7 *1767:D_N *386:43 0.000234181
8 *1766:D_N *1767:D_N 9.6849e-05
*RES
1 sstream_i[60] *1767:D_N 14.0285 
*END

*D_NET *194 0.00142695
*CONN
*P sstream_i[61] I
*I *1768:D_N I *D sky130_fd_sc_hd__nor4b_1
*CAP
1 sstream_i[61] 0.000616624
2 *1768:D_N 0.000616624
3 *1768:D_N *1769:D_N 9.6849e-05
4 *1768:D_N *1966:A 0
5 *1767:D_N *1768:D_N 9.6849e-05
*RES
1 sstream_i[61] *1768:D_N 12.3035 
*END

*D_NET *195 0.00180693
*CONN
*P sstream_i[62] I
*I *1769:D_N I *D sky130_fd_sc_hd__nor4b_1
*CAP
1 sstream_i[62] 0.000728505
2 *1769:D_N 0.000728505
3 *1769:D_N *1769:B 0.000157282
4 *1769:D_N *1966:A 0
5 *1769:D_N *1976:A 9.57858e-05
6 *1768:D_N *1769:D_N 9.6849e-05
*RES
1 sstream_i[62] *1769:D_N 14.0285 
*END

*D_NET *196 0.0034164
*CONN
*P sstream_i[63] I
*I *1976:A I *D sky130_fd_sc_hd__clkbuf_4
*CAP
1 sstream_i[63] 0.00117693
2 *1976:A 0.00117693
3 *1976:A *1770:D_N 0.000140823
4 *1976:A *1771:A 4.58486e-05
5 *1976:A *1772:D_N 0
6 *1976:A *237:14 0.000294892
7 *1976:A *361:18 5.88334e-05
8 *1976:A *379:8 0.000122699
9 *1976:A *386:25 3.93395e-05
10 *1976:A *386:88 0.000131933
11 *1976:A *386:107 0.000132396
12 *1769:D_N *1976:A 9.57858e-05
*RES
1 sstream_i[63] *1976:A 11.8086 
*END

*D_NET *197 0.00217686
*CONN
*P sstream_i[64] I
*I *1770:D_N I *D sky130_fd_sc_hd__nor4b_1
*CAP
1 sstream_i[64] 0.000632232
2 *1770:D_N 0.000632232
3 *1770:D_N *1770:B 0.000112887
4 *1770:D_N *1770:C 2.75229e-05
5 *1770:D_N *1771:A 1.56428e-05
6 *1770:D_N *1771:C 0.000223031
7 *1770:D_N *1771:D_N 0.000342106
8 *1770:D_N *1772:D_N 0
9 *1770:D_N *1887:D 1.06624e-05
10 *1770:D_N *1966:A 3.97211e-05
11 *1976:A *1770:D_N 0.000140823
*RES
1 sstream_i[64] *1770:D_N 13.3466 
*END

*D_NET *198 0.00134868
*CONN
*P sstream_i[65] I
*I *1771:D_N I *D sky130_fd_sc_hd__nor4b_1
*CAP
1 sstream_i[65] 0.000455393
2 *1771:D_N 0.000455393
3 *1771:D_N *1772:D_N 9.57858e-05
4 *1771:D_N *1966:A 0
5 *1770:D_N *1771:D_N 0.000342106
*RES
1 sstream_i[65] *1771:D_N 11.0885 
*END

*D_NET *199 0.00351287
*CONN
*P sstream_i[66] I
*I *1772:D_N I *D sky130_fd_sc_hd__nor4b_1
*CAP
1 sstream_i[66] 0.00116496
2 *1772:D_N 0.00116496
3 *1772:D_N *1771:A 4.256e-05
4 *1772:D_N *1773:D_N 9.6849e-05
5 *1772:D_N *1953:A 0.000319174
6 *1772:D_N *237:14 8.16525e-05
7 *1772:D_N *396:123 3.97211e-05
8 *1772:D_N *412:57 0.000156155
9 *1772:D_N *412:59 0.000351052
10 *1770:D_N *1772:D_N 0
11 *1771:D_N *1772:D_N 9.57858e-05
12 *1976:A *1772:D_N 0
*RES
1 sstream_i[66] *1772:D_N 12.1034 
*END

*D_NET *200 0.00146873
*CONN
*P sstream_i[67] I
*I *1773:D_N I *D sky130_fd_sc_hd__nor4b_1
*CAP
1 sstream_i[67] 0.00061363
2 *1773:D_N 0.00061363
3 *1773:D_N *1774:D_N 9.6849e-05
4 *1773:D_N *396:133 4.77757e-05
5 *1772:D_N *1773:D_N 9.6849e-05
*RES
1 sstream_i[67] *1773:D_N 12.3035 
*END

*D_NET *201 0.00296731
*CONN
*P sstream_i[68] I
*I *1774:D_N I *D sky130_fd_sc_hd__nor4b_1
*CAP
1 sstream_i[68] 0.00101604
2 *1774:D_N 0.00101604
3 *1774:D_N *1774:B 3.71082e-05
4 *1774:D_N *1775:D_N 9.6849e-05
5 *1774:D_N *1776:D_N 0
6 *1774:D_N *1777:C 4.66108e-05
7 *1774:D_N *1893:D 4.77757e-05
8 *1774:D_N *237:14 2.54946e-05
9 *1774:D_N *386:116 4.11251e-05
10 *1774:D_N *386:129 0.000167424
11 *1774:D_N *386:144 0.000131602
12 *1774:D_N *396:133 3.30483e-05
13 *1774:D_N *396:158 9.15784e-05
14 *1774:D_N *396:177 0.000119762
15 *1774:D_N *416:124 0
16 *1773:D_N *1774:D_N 9.6849e-05
*RES
1 sstream_i[68] *1774:D_N 11.7392 
*END

*D_NET *202 0.00155501
*CONN
*P sstream_i[69] I
*I *1775:D_N I *D sky130_fd_sc_hd__nor4b_1
*CAP
1 sstream_i[69] 0.000582323
2 *1775:D_N 0.000582323
3 *1775:D_N *1776:D_N 9.57858e-05
4 *1775:D_N *412:47 0.000197724
5 *1774:D_N *1775:D_N 9.6849e-05
*RES
1 sstream_i[69] *1775:D_N 12.3035 
*END

*D_NET *203 0.00119982
*CONN
*P sstream_i[6] I
*I *1714:D_N I *D sky130_fd_sc_hd__nor4b_1
*CAP
1 sstream_i[6] 0.000503591
2 *1714:D_N 0.000503591
3 *1714:D_N *1715:D_N 9.57858e-05
4 *1713:D_N *1714:D_N 9.6849e-05
*RES
1 sstream_i[6] *1714:D_N 10.5785 
*END

*D_NET *204 0.00297338
*CONN
*P sstream_i[70] I
*I *1776:D_N I *D sky130_fd_sc_hd__nor4b_1
*CAP
1 sstream_i[70] 0.0011952
2 *1776:D_N 0.0011952
3 *1776:D_N *1774:A 1.7635e-05
4 *1776:D_N *1777:D_N 9.6849e-05
5 *1776:D_N *1778:D_N 0
6 *1776:D_N *1952:A 0.000169361
7 *1776:D_N *1983:A 3.05373e-05
8 *1776:D_N *237:14 2.59482e-05
9 *1776:D_N *237:16 0.000146862
10 *1776:D_N *367:36 0
11 *1776:D_N *367:51 0
12 *1774:D_N *1776:D_N 0
13 *1775:D_N *1776:D_N 9.57858e-05
*RES
1 sstream_i[70] *1776:D_N 10.4873 
*END

*D_NET *205 0.00130708
*CONN
*P sstream_i[71] I
*I *1777:D_N I *D sky130_fd_sc_hd__nor4b_1
*CAP
1 sstream_i[71] 0.000528481
2 *1777:D_N 0.000528481
3 *1777:D_N *1777:A 1.08758e-05
4 *1777:D_N *1778:D_N 9.57858e-05
5 *1777:D_N *386:170 4.66108e-05
6 *1776:D_N *1777:D_N 9.6849e-05
*RES
1 sstream_i[71] *1777:D_N 11.0885 
*END

*D_NET *206 0.00314141
*CONN
*P sstream_i[72] I
*I *1778:D_N I *D sky130_fd_sc_hd__nor4b_1
*CAP
1 sstream_i[72] 0.00107868
2 *1778:D_N 0.00107868
3 *1778:D_N *1776:B 0.000179857
4 *1778:D_N *1779:D_N 9.6849e-05
5 *1778:D_N *1780:A 0.000158072
6 *1778:D_N *1896:D 0.000158072
7 *1778:D_N *237:16 2.1967e-05
8 *1778:D_N *386:170 0.000216304
9 *1778:D_N *397:30 5.71481e-05
10 *1778:D_N *416:124 0
11 *1776:D_N *1778:D_N 0
12 *1777:D_N *1778:D_N 9.57858e-05
*RES
1 sstream_i[72] *1778:D_N 11.7392 
*END

*D_NET *207 0.0017137
*CONN
*P sstream_i[73] I
*I *1779:D_N I *D sky130_fd_sc_hd__nor4b_1
*CAP
1 sstream_i[73] 0.00054608
2 *1779:D_N 0.00054608
3 *1779:D_N *1776:A 8.50369e-06
4 *1779:D_N *1779:A 9.13949e-06
5 *1779:D_N *1780:D_N 9.57858e-05
6 *1779:D_N *1973:A 8.40213e-05
7 *1779:D_N *386:170 0.000265549
8 *1779:D_N *387:10 4.82299e-05
9 *1779:D_N *390:153 1.34594e-05
10 *1778:D_N *1779:D_N 9.6849e-05
*RES
1 sstream_i[73] *1779:D_N 12.4085 
*END

*D_NET *208 0.00123155
*CONN
*P sstream_i[74] I
*I *1780:D_N I *D sky130_fd_sc_hd__nor4b_1
*CAP
1 sstream_i[74] 0.00051946
2 *1780:D_N 0.00051946
3 *1780:D_N *1781:D_N 9.6849e-05
4 *1779:D_N *1780:D_N 9.57858e-05
*RES
1 sstream_i[74] *1780:D_N 10.5785 
*END

*D_NET *209 0.00145012
*CONN
*P sstream_i[75] I
*I *1781:D_N I *D sky130_fd_sc_hd__nor4b_1
*CAP
1 sstream_i[75] 0.00062821
2 *1781:D_N 0.00062821
3 *1781:D_N *1782:D_N 9.6849e-05
4 *1780:D_N *1781:D_N 9.6849e-05
*RES
1 sstream_i[75] *1781:D_N 12.3035 
*END

*D_NET *210 0.00256986
*CONN
*P sstream_i[76] I
*I *1782:D_N I *D sky130_fd_sc_hd__nor4b_1
*CAP
1 sstream_i[76] 0.00103836
2 *1782:D_N 0.00103836
3 *1782:D_N *1783:D_N 9.6849e-05
4 *1782:D_N *237:16 0.000149717
5 *1782:D_N *413:31 0.000149717
6 *1781:D_N *1782:D_N 9.6849e-05
*RES
1 sstream_i[76] *1782:D_N 8.02343 
*END

*D_NET *211 0.00144057
*CONN
*P sstream_i[77] I
*I *1783:D_N I *D sky130_fd_sc_hd__nor4b_1
*CAP
1 sstream_i[77] 0.000623435
2 *1783:D_N 0.000623435
3 *1783:D_N *1784:D_N 9.6849e-05
4 *1782:D_N *1783:D_N 9.6849e-05
*RES
1 sstream_i[77] *1783:D_N 12.3035 
*END

*D_NET *212 0.00183292
*CONN
*P sstream_i[78] I
*I *1784:D_N I *D sky130_fd_sc_hd__nor4b_1
*CAP
1 sstream_i[78] 0.000690563
2 *1784:D_N 0.000690563
3 *1784:D_N *1784:B 0.000118081
4 *1784:D_N *1784:C 4.41506e-05
5 *1784:D_N *1785:D_N 9.57858e-05
6 *1784:D_N *396:202 9.69304e-05
7 *1783:D_N *1784:D_N 9.6849e-05
*RES
1 sstream_i[78] *1784:D_N 14.0285 
*END

*D_NET *213 0.00146593
*CONN
*P sstream_i[79] I
*I *1785:D_N I *D sky130_fd_sc_hd__nor4b_1
*CAP
1 sstream_i[79] 0.00063665
2 *1785:D_N 0.00063665
3 *1785:D_N *1786:D_N 9.6849e-05
4 *1784:D_N *1785:D_N 9.57858e-05
*RES
1 sstream_i[79] *1785:D_N 12.3035 
*END

*D_NET *214 0.00140737
*CONN
*P sstream_i[7] I
*I *1715:D_N I *D sky130_fd_sc_hd__nor4b_1
*CAP
1 sstream_i[7] 0.000607366
2 *1715:D_N 0.000607366
3 *1715:D_N *1716:D_N 9.6849e-05
4 *1714:D_N *1715:D_N 9.57858e-05
*RES
1 sstream_i[7] *1715:D_N 12.3035 
*END

*D_NET *215 0.00184782
*CONN
*P sstream_i[80] I
*I *1786:D_N I *D sky130_fd_sc_hd__nor4b_1
*CAP
1 sstream_i[80] 0.000727378
2 *1786:D_N 0.000727378
3 *1786:D_N *1786:B 0.000118081
4 *1786:D_N *1786:C 8.23457e-05
5 *1786:D_N *1787:D_N 9.57858e-05
6 *1785:D_N *1786:D_N 9.6849e-05
*RES
1 sstream_i[80] *1786:D_N 14.0285 
*END

*D_NET *216 0.0017403
*CONN
*P sstream_i[81] I
*I *1787:D_N I *D sky130_fd_sc_hd__nor4b_1
*CAP
1 sstream_i[81] 0.000764181
2 *1787:D_N 0.000764181
3 *1787:D_N *1788:D_N 9.6849e-05
4 *1787:D_N *386:170 1.92979e-05
5 *1786:D_N *1787:D_N 9.57858e-05
*RES
1 sstream_i[81] *1787:D_N 6.11597 
*END

*D_NET *217 0.00180966
*CONN
*P sstream_i[82] I
*I *1788:D_N I *D sky130_fd_sc_hd__nor4b_1
*CAP
1 sstream_i[82] 0.000670758
2 *1788:D_N 0.000670758
3 *1788:D_N *1788:A 1.08758e-05
4 *1788:D_N *1788:B 0.00015639
5 *1788:D_N *1789:D_N 9.6849e-05
6 *1788:D_N *396:202 0.000107176
7 *1787:D_N *1788:D_N 9.6849e-05
*RES
1 sstream_i[82] *1788:D_N 14.0285 
*END

*D_NET *218 0.00145326
*CONN
*P sstream_i[83] I
*I *1789:D_N I *D sky130_fd_sc_hd__nor4b_1
*CAP
1 sstream_i[83] 0.000630311
2 *1789:D_N 0.000630311
3 *1789:D_N *1790:D_N 9.57858e-05
4 *1788:D_N *1789:D_N 9.6849e-05
*RES
1 sstream_i[83] *1789:D_N 12.3035 
*END

*D_NET *219 0.00178933
*CONN
*P sstream_i[84] I
*I *1790:D_N I *D sky130_fd_sc_hd__nor4b_1
*CAP
1 sstream_i[84] 0.000714714
2 *1790:D_N 0.000714714
3 *1790:D_N *1790:A 1.08758e-05
4 *1790:D_N *1790:B 0.00015639
5 *1790:D_N *1791:D_N 9.6849e-05
6 *1789:D_N *1790:D_N 9.57858e-05
*RES
1 sstream_i[84] *1790:D_N 14.0285 
*END

*D_NET *220 0.00146446
*CONN
*P sstream_i[85] I
*I *1791:D_N I *D sky130_fd_sc_hd__nor4b_1
*CAP
1 sstream_i[85] 0.000610565
2 *1791:D_N 0.000610565
3 *1791:D_N *453:DIODE 5.06989e-05
4 *1791:D_N *1792:D_N 9.57858e-05
5 *1790:D_N *1791:D_N 9.6849e-05
*RES
1 sstream_i[85] *1791:D_N 12.3035 
*END

*D_NET *221 0.00225175
*CONN
*P sstream_i[86] I
*I *1792:D_N I *D sky130_fd_sc_hd__nor4b_1
*CAP
1 sstream_i[86] 0.00100389
2 *1792:D_N 0.00100389
3 *1792:D_N *1792:A 9.50342e-06
4 *1792:D_N *1793:D_N 9.6849e-05
5 *1792:D_N *237:16 4.18203e-05
6 *1792:D_N *369:20 0
7 *1791:D_N *1792:D_N 9.57858e-05
*RES
1 sstream_i[86] *1792:D_N 6.6623 
*END

*D_NET *222 0.00160733
*CONN
*P sstream_i[87] I
*I *1793:D_N I *D sky130_fd_sc_hd__nor4b_1
*CAP
1 sstream_i[87] 0.000603046
2 *1793:D_N 0.000603046
3 *1793:D_N *1794:D_N 9.57858e-05
4 *1793:D_N *1974:A 4.82919e-05
5 *1793:D_N *388:8 0.000160314
6 *1792:D_N *1793:D_N 9.6849e-05
*RES
1 sstream_i[87] *1793:D_N 12.5135 
*END

*D_NET *223 0.0018175
*CONN
*P sstream_i[88] I
*I *1794:D_N I *D sky130_fd_sc_hd__nor4b_1
*CAP
1 sstream_i[88] 0.000654728
2 *1794:D_N 0.000654728
3 *1794:D_N *431:DIODE 0.000108788
4 *1794:D_N *1794:B 0.000119762
5 *1794:D_N *1794:C 4.08514e-05
6 *1794:D_N *1795:D_N 9.6849e-05
7 *1794:D_N *398:24 4.60061e-05
8 *1793:D_N *1794:D_N 9.57858e-05
*RES
1 sstream_i[88] *1794:D_N 14.0285 
*END

*D_NET *224 0.00142617
*CONN
*P sstream_i[89] I
*I *1795:D_N I *D sky130_fd_sc_hd__nor4b_1
*CAP
1 sstream_i[89] 0.000616234
2 *1795:D_N 0.000616234
3 *1795:D_N *1796:D_N 9.6849e-05
4 *1794:D_N *1795:D_N 9.6849e-05
*RES
1 sstream_i[89] *1795:D_N 12.3035 
*END

*D_NET *225 0.002749
*CONN
*P sstream_i[8] I
*I *1716:D_N I *D sky130_fd_sc_hd__nor4b_1
*CAP
1 sstream_i[8] 0.000971561
2 *1716:D_N 0.000971561
3 *1716:D_N *1716:C 3.83041e-05
4 *1716:D_N *1717:D_N 9.6849e-05
5 *1716:D_N *1828:D 5.77162e-05
6 *1716:D_N *381:56 2.53191e-06
7 *1716:D_N *381:58 1.23331e-05
8 *1716:D_N *381:66 2.97004e-06
9 *1716:D_N *382:39 5.57088e-05
10 *1716:D_N *382:41 0.000104196
11 *1716:D_N *382:49 5.18317e-06
12 *1716:D_N *391:39 1.7635e-05
13 *1716:D_N *391:43 0.000128075
14 *1716:D_N *391:49 0.000139238
15 *1716:D_N *391:53 4.82919e-05
16 *1715:D_N *1716:D_N 9.6849e-05
17 *1719:D_N *1716:D_N 0
*RES
1 sstream_i[8] *1716:D_N 10.6558 
*END

*D_NET *226 0.00178351
*CONN
*P sstream_i[90] I
*I *1796:D_N I *D sky130_fd_sc_hd__nor4b_1
*CAP
1 sstream_i[90] 0.000720502
2 *1796:D_N 0.000720502
3 *1796:D_N *1796:B 8.40269e-05
4 *1796:D_N *1796:C 6.58423e-05
5 *1796:D_N *1797:D_N 9.57858e-05
6 *1795:D_N *1796:D_N 9.6849e-05
*RES
1 sstream_i[90] *1796:D_N 14.0285 
*END

*D_NET *227 0.00259552
*CONN
*P sstream_i[91] I
*I *1797:D_N I *D sky130_fd_sc_hd__nor4b_1
*CAP
1 sstream_i[91] 0.00100513
2 *1797:D_N 0.00100513
3 *1797:D_N *1798:D_N 9.6849e-05
4 *1797:D_N *237:16 0.000196308
5 *1797:D_N *414:21 0.000196308
6 *1796:D_N *1797:D_N 9.57858e-05
*RES
1 sstream_i[91] *1797:D_N 8.4473 
*END

*D_NET *228 0.00121177
*CONN
*P sstream_i[92] I
*I *1798:D_N I *D sky130_fd_sc_hd__nor4b_1
*CAP
1 sstream_i[92] 0.000509566
2 *1798:D_N 0.000509566
3 *1798:D_N *1799:D_N 9.57858e-05
4 *1797:D_N *1798:D_N 9.6849e-05
*RES
1 sstream_i[92] *1798:D_N 10.5785 
*END

*D_NET *229 0.00161858
*CONN
*P sstream_i[93] I
*I *1799:D_N I *D sky130_fd_sc_hd__nor4b_1
*CAP
1 sstream_i[93] 0.000603594
2 *1799:D_N 0.000603594
3 *1799:D_N *1799:A 3.6355e-05
4 *1799:D_N *1800:D_N 9.6849e-05
5 *1799:D_N *2000:A 5.37723e-05
6 *1799:D_N *414:79 0.000122801
7 *1799:D_N *416:10 5.83121e-06
8 *1798:D_N *1799:D_N 9.57858e-05
*RES
1 sstream_i[93] *1799:D_N 12.5135 
*END

*D_NET *230 0.00191706
*CONN
*P sstream_i[94] I
*I *1800:D_N I *D sky130_fd_sc_hd__nor4b_1
*CAP
1 sstream_i[94] 0.000646362
2 *1800:D_N 0.000646362
3 *1800:D_N *1800:A 0.000110668
4 *1800:D_N *2002:A 9.57858e-05
5 *1800:D_N *398:101 8.23457e-05
6 *1800:D_N *400:200 0.000117135
7 *1800:D_N *414:87 0.000121547
8 *1799:D_N *1800:D_N 9.6849e-05
*RES
1 sstream_i[94] *1800:D_N 14.0285 
*END

*D_NET *231 0.00324294
*CONN
*P sstream_i[95] I
*I *2002:A I *D sky130_fd_sc_hd__clkbuf_4
*CAP
1 sstream_i[95] 0.00118915
2 *2002:A 0.00118915
3 *2002:A *1799:B 4.66108e-05
4 *2002:A *1801:D_N 9.6849e-05
5 *2002:A *1915:D 4.11718e-05
6 *2002:A *237:16 0.000233512
7 *2002:A *388:89 2.92496e-05
8 *2002:A *388:102 0.000199908
9 *2002:A *416:10 0.000121541
10 *1800:D_N *2002:A 9.57858e-05
*RES
1 sstream_i[95] *2002:A 10.1834 
*END

*D_NET *232 0.00177737
*CONN
*P sstream_i[96] I
*I *1801:D_N I *D sky130_fd_sc_hd__nor4b_1
*CAP
1 sstream_i[96] 0.00073151
2 *1801:D_N 0.00073151
3 *1801:D_N *1801:A 0.000120655
4 *1801:D_N *1802:D_N 9.6849e-05
5 *2002:A *1801:D_N 9.6849e-05
*RES
1 sstream_i[96] *1801:D_N 14.0285 
*END

*D_NET *233 0.00146524
*CONN
*P sstream_i[97] I
*I *1802:D_N I *D sky130_fd_sc_hd__nor4b_1
*CAP
1 sstream_i[97] 0.000630593
2 *1802:D_N 0.000630593
3 *1802:D_N *1803:D_N 9.57858e-05
4 *1802:D_N *414:122 1.14169e-05
5 *1801:D_N *1802:D_N 9.6849e-05
*RES
1 sstream_i[97] *1802:D_N 12.3035 
*END

*D_NET *234 0.00179035
*CONN
*P sstream_i[98] I
*I *1803:D_N I *D sky130_fd_sc_hd__nor4b_1
*CAP
1 sstream_i[98] 0.00070241
2 *1803:D_N 0.00070241
3 *1803:D_N *1803:A 1.08758e-05
4 *1803:D_N *1803:C 8.23457e-05
5 *1803:D_N *1804:D_N 9.6849e-05
6 *1803:D_N *414:122 9.96764e-05
7 *1802:D_N *1803:D_N 9.57858e-05
*RES
1 sstream_i[98] *1803:D_N 14.0285 
*END

*D_NET *235 0.00179255
*CONN
*P sstream_i[99] I
*I *1804:D_N I *D sky130_fd_sc_hd__nor4b_1
*CAP
1 sstream_i[99] 0.000712995
2 *1804:D_N 0.000712995
3 *1804:D_N *398:168 0.000122801
4 *1804:D_N *416:39 5.00615e-05
5 *1803:D_N *1804:D_N 9.6849e-05
6 *1805:D_N *1804:D_N 9.6849e-05
*RES
1 sstream_i[99] *1804:D_N 8.3175 
*END

*D_NET *236 0.00142003
*CONN
*P sstream_i[9] I
*I *1717:D_N I *D sky130_fd_sc_hd__nor4b_1
*CAP
1 sstream_i[9] 0.000613168
2 *1717:D_N 0.000613168
3 *1716:D_N *1717:D_N 9.6849e-05
4 *1718:D_N *1717:D_N 9.6849e-05
*RES
1 sstream_i[9] *1717:D_N 12.3035 
*END

*D_NET *237 0.0284223
*CONN
*P sstream_o O
*I *1941:X O *D sky130_fd_sc_hd__buf_12
*CAP
1 sstream_o 0.000922653
2 *1941:X 0.0019536
3 *237:16 0.00377203
4 *237:14 0.00480298
5 *237:14 *1765:C 0.000134229
6 *237:14 *1766:B 2.0514e-05
7 *237:14 *1766:C 0.000381299
8 *237:14 *1880:D 6.62785e-06
9 *237:14 *1880:RESET_B 2.4976e-05
10 *237:14 *1881:D 5.75674e-05
11 *237:14 *1893:D 0.000183738
12 *237:14 *1952:A 0.000299136
13 *237:14 *1953:A 0.000512752
14 *237:14 *380:12 0
15 *237:14 *386:25 9.46476e-05
16 *237:14 *386:29 8.88971e-05
17 *237:14 *386:33 0.000231564
18 *237:14 *386:107 0.000353455
19 *237:14 *386:116 0.000208484
20 *237:14 *386:129 0.00018305
21 *237:14 *386:144 3.33831e-06
22 *237:14 *396:40 0.000174519
23 *237:14 *396:55 0.000177568
24 *237:14 *396:68 0.000219012
25 *237:14 *396:83 0.000261136
26 *237:14 *396:123 0.000252002
27 *237:14 *396:158 9.28013e-05
28 *237:14 *400:152 0.00012369
29 *237:14 *416:126 0
30 *237:16 *1776:A 0.000139245
31 *237:16 *1776:B 2.42236e-05
32 *237:16 *1776:C 0
33 *237:16 *1787:C 0.000164686
34 *237:16 *1791:C 0.000141606
35 *237:16 *1792:A 0.000118446
36 *237:16 *1792:B 9.42224e-05
37 *237:16 *1800:B 2.05571e-05
38 *237:16 *1809:A 5.53549e-06
39 *237:16 *1811:A 1.34361e-05
40 *237:16 *1820:A 1.56908e-05
41 *237:16 *1820:C 0.000141592
42 *237:16 *1906:CLK 0
43 *237:16 *1934:D 0
44 *237:16 *1935:CLK 0
45 *237:16 *1935:D 0
46 *237:16 *1983:A 6.7449e-05
47 *237:16 *363:16 3.42414e-05
48 *237:16 *369:20 0
49 *237:16 *370:64 0
50 *237:16 *370:101 0
51 *237:16 *370:116 0
52 *237:16 *386:170 4.05289e-05
53 *237:16 *388:40 7.18895e-05
54 *237:16 *388:53 0.000108461
55 *237:16 *388:68 0.000357483
56 *237:16 *388:89 5.64811e-05
57 *237:16 *388:102 1.27504e-05
58 *237:16 *388:119 0.00031628
59 *237:16 *388:134 0.00020934
60 *237:16 *388:155 2.25106e-05
61 *237:16 *388:193 0.00173902
62 *237:16 *388:218 0.00011214
63 *237:16 *389:120 0.000171436
64 *237:16 *389:137 0.000177932
65 *237:16 *396:206 0.000229203
66 *237:16 *396:215 0.000226841
67 *237:16 *397:30 0.000176647
68 *237:16 *397:43 0.00011852
69 *237:16 *397:52 0.000204447
70 *237:16 *397:67 0.000161623
71 *237:16 *397:76 0.000204084
72 *237:16 *397:91 0.000158844
73 *237:16 *397:100 0.000201019
74 *237:16 *398:16 0.000203769
75 *237:16 *398:56 1.07797e-05
76 *237:16 *398:71 0.000186499
77 *237:16 *398:101 0.000139245
78 *237:16 *398:141 0.000179015
79 *237:16 *398:154 0.000181376
80 *237:16 *399:36 0.000127772
81 *237:16 *399:55 7.70424e-07
82 *237:16 *399:82 0
83 *237:16 *399:107 0.000160651
84 *237:16 *399:126 0.000227123
85 *237:16 *400:152 1.7635e-05
86 *237:16 *400:162 0
87 *237:16 *400:200 2.29583e-05
88 *237:16 *412:23 0.000172845
89 *237:16 *412:25 0.000109995
90 *237:16 *412:27 0.000155176
91 *237:16 *412:39 0.00102852
92 *237:16 *413:29 1.7902e-05
93 *237:16 *413:31 1.42065e-05
94 *237:16 *413:33 9.27687e-05
95 *237:16 *413:41 8.44359e-05
96 *237:16 *414:21 8.35313e-05
97 *237:16 *414:23 9.61052e-05
98 *237:16 *414:25 9.766e-05
99 *237:16 *414:27 7.00066e-05
100 *237:16 *414:93 0.000173191
101 *237:16 *414:110 6.36578e-05
102 *237:16 *414:126 0.000214822
103 *237:16 *414:144 0.000482743
104 *237:16 *416:124 0
105 mstream_o[58] *237:14 6.85625e-05
106 *1766:D_N *237:14 4.61701e-06
107 *1772:D_N *237:14 8.16525e-05
108 *1774:D_N *237:14 2.54946e-05
109 *1776:D_N *237:14 2.59482e-05
110 *1776:D_N *237:16 0.000146862
111 *1778:D_N *237:16 2.1967e-05
112 *1782:D_N *237:16 0.000149717
113 *1792:D_N *237:16 4.18203e-05
114 *1797:D_N *237:16 0.000196308
115 *1809:D_N *237:16 0.000504852
116 *1811:D_N *237:16 0.000323468
117 *1816:D_N *237:16 0.000192059
118 *1820:D_N sstream_o 9.57858e-05
119 *1976:A *237:14 0.000294892
120 *2002:A *237:16 0.000233512
121 *137:17 sstream_o 4.95285e-06
*RES
1 *1941:X *237:14 44.3625 
2 *237:14 *237:16 89.355 
3 *237:16 sstream_o 2.6888 
*END

*D_NET *240 0.00122136
*CONN
*I *1822:D I *D sky130_fd_sc_hd__dfrtp_4
*I *1708:Y O *D sky130_fd_sc_hd__nor4b_1
*CAP
1 *1822:D 0.000380606
2 *1708:Y 0.000380606
3 *1822:D *1710:A 8.50369e-06
4 *1822:D *1710:C 0.000303019
5 *1822:D *1822:CLK 6.48571e-05
6 *1822:D *1824:D 6.27538e-05
7 *1710:D_N *1822:D 2.10152e-05
*RES
1 *1708:Y *1822:D 9.47 
*END

*D_NET *241 0.000234446
*CONN
*I *1922:D I *D sky130_fd_sc_hd__dfrtp_4
*I *1805:Y O *D sky130_fd_sc_hd__nor4b_1
*CAP
1 *1922:D 5.5475e-05
2 *1805:Y 5.5475e-05
3 *1922:D *1922:CLK 2.937e-05
4 *1922:D *1949:A 9.4126e-05
*RES
1 *1805:Y *1922:D 4.685 
*END

*D_NET *242 0.000812205
*CONN
*I *1923:D I *D sky130_fd_sc_hd__dfrtp_4
*I *1806:Y O *D sky130_fd_sc_hd__nor4b_1
*CAP
1 *1923:D 0.000233914
2 *1806:Y 0.000233914
3 *1923:D *1806:C 2.68526e-05
4 *1923:D *1923:CLK 5.55968e-05
5 *1923:D *1985:A 0.000233568
6 *1923:D *399:6 2.83579e-05
*RES
1 *1806:Y *1923:D 7.91 
*END

*D_NET *243 0.000227274
*CONN
*I *1924:D I *D sky130_fd_sc_hd__dfrtp_4
*I *1807:Y O *D sky130_fd_sc_hd__nor4b_1
*CAP
1 *1924:D 0.000100214
2 *1807:Y 0.000100214
3 *1924:D *1924:CLK 2.68464e-05
*RES
1 *1807:Y *1924:D 4.685 
*END

*D_NET *244 0.000728794
*CONN
*I *1925:D I *D sky130_fd_sc_hd__dfrtp_4
*I *1808:Y O *D sky130_fd_sc_hd__nor4b_1
*CAP
1 *1925:D 0.000313849
2 *1808:Y 0.000313849
3 *1925:D *1808:C 2.75145e-05
4 *1925:D *1925:CLK 7.35813e-05
*RES
1 *1808:Y *1925:D 7.79 
*END

*D_NET *245 0.00156951
*CONN
*I *1926:D I *D sky130_fd_sc_hd__dfrtp_4
*I *1809:Y O *D sky130_fd_sc_hd__nor4b_1
*CAP
1 *1926:D 0.000381442
2 *1809:Y 0.000381442
3 *1926:D *1926:CLK 7.62881e-05
4 *1926:D *1956:A 0.000154633
5 *1926:D *370:10 0.000107176
6 *1926:D *399:55 0.000134249
7 *1926:D *399:74 8.50428e-05
8 *1809:D_N *1926:D 0.000249241
*RES
1 *1809:Y *1926:D 15.54 
*END

*D_NET *246 0.000731933
*CONN
*I *1927:D I *D sky130_fd_sc_hd__dfrtp_4
*I *1810:Y O *D sky130_fd_sc_hd__nor4b_1
*CAP
1 *1927:D 0.000343891
2 *1810:Y 0.000343891
3 *1927:D *399:55 4.41506e-05
*RES
1 *1810:Y *1927:D 7.79 
*END

*D_NET *247 0.00105976
*CONN
*I *1928:D I *D sky130_fd_sc_hd__dfrtp_4
*I *1811:Y O *D sky130_fd_sc_hd__nor4b_1
*CAP
1 *1928:D 0.000193431
2 *1811:Y 0.000193431
3 *1928:D *1928:CLK 1.7386e-05
4 *1928:D *1930:CLK 2.17688e-05
5 *1928:D *1930:D 0.000121019
6 *1928:D *370:64 0.000362965
7 *1928:D *371:45 7.63282e-05
8 *1928:D *371:56 7.34286e-05
*RES
1 *1811:Y *1928:D 12.975 
*END

*D_NET *248 0.000796659
*CONN
*I *1929:D I *D sky130_fd_sc_hd__dfrtp_4
*I *1812:Y O *D sky130_fd_sc_hd__nor4b_1
*CAP
1 *1929:D 0.000338397
2 *1812:Y 0.000338397
3 *1929:D *399:82 0.000119866
*RES
1 *1812:Y *1929:D 7.79 
*END

*D_NET *249 0.00140341
*CONN
*I *1930:D I *D sky130_fd_sc_hd__dfrtp_4
*I *1813:Y O *D sky130_fd_sc_hd__nor4b_1
*CAP
1 *1930:D 0.000443245
2 *1813:Y 0.000443245
3 *1930:D *1811:C 0.000122801
4 *1930:D *1930:CLK 4.40325e-06
5 *1930:D *399:92 2.97746e-05
6 *1930:D *399:103 0.00018955
7 *1930:D *415:107 4.93707e-05
8 *1928:D *1930:D 0.000121019
*RES
1 *1813:Y *1930:D 13.11 
*END

*D_NET *250 0.000905095
*CONN
*I *1931:D I *D sky130_fd_sc_hd__dfrtp_4
*I *1814:Y O *D sky130_fd_sc_hd__nor4b_1
*CAP
1 *1931:D 0.000372056
2 *1814:Y 0.000372056
3 *1931:D *1814:C 3.64998e-06
4 *1931:D *1931:CLK 3.45679e-05
5 *1821:A *1931:D 0.000122766
*RES
1 *1814:Y *1931:D 8.165 
*END

*D_NET *251 0.00115384
*CONN
*I *1832:D I *D sky130_fd_sc_hd__dfrtp_4
*I *1718:Y O *D sky130_fd_sc_hd__nor4b_1
*CAP
1 *1832:D 0.000389863
2 *1718:Y 0.000389863
3 *1832:D *1718:B 4.77719e-05
4 *1832:D *1720:B 0.000238306
5 *1832:D *1720:C 1.08153e-05
6 *1832:D *1832:CLK 4.85381e-05
7 *1832:D *1834:D 2.86855e-05
*RES
1 *1718:Y *1832:D 8.855 
*END

*D_NET *252 0.000704194
*CONN
*I *1932:D I *D sky130_fd_sc_hd__dfrtp_4
*I *1815:Y O *D sky130_fd_sc_hd__nor4b_1
*CAP
1 *1932:D 0.000283921
2 *1815:Y 0.000283921
3 *1932:D *1932:CLK 5.05521e-05
4 *1932:D *399:126 8.58007e-05
*RES
1 *1815:Y *1932:D 7.445 
*END

*D_NET *253 0.000219356
*CONN
*I *1933:D I *D sky130_fd_sc_hd__dfrtp_4
*I *1816:Y O *D sky130_fd_sc_hd__nor4b_1
*CAP
1 *1933:D 9.6255e-05
2 *1816:Y 9.6255e-05
3 *1933:D *1933:CLK 2.68464e-05
*RES
1 *1816:Y *1933:D 4.685 
*END

*D_NET *254 0.00120299
*CONN
*I *1934:D I *D sky130_fd_sc_hd__dfrtp_4
*I *1817:Y O *D sky130_fd_sc_hd__nor4b_1
*CAP
1 *1934:D 0.000422148
2 *1817:Y 0.000422148
3 *1934:D *1816:A 0.000232755
4 *1934:D *1816:B 4.89295e-05
5 *1934:D *1816:C 1.53053e-05
6 *1934:D *1933:CLK 3.50152e-06
7 *1934:D *1935:D 5.82026e-05
8 *237:16 *1934:D 0
*RES
1 *1817:Y *1934:D 14.07 
*END

*D_NET *255 0.000946229
*CONN
*I *1935:D I *D sky130_fd_sc_hd__dfrtp_4
*I *1818:Y O *D sky130_fd_sc_hd__nor4b_1
*CAP
1 *1935:D 0.000383687
2 *1818:Y 0.000383687
3 *1935:D *1935:CLK 7.23602e-05
4 *1935:D *1937:D 4.82919e-05
5 *1934:D *1935:D 5.82026e-05
6 *237:16 *1935:D 0
*RES
1 *1818:Y *1935:D 12.405 
*END

*D_NET *256 0.000406379
*CONN
*I *1936:D I *D sky130_fd_sc_hd__dfrtp_4
*I *1819:Y O *D sky130_fd_sc_hd__nor4b_1
*CAP
1 *1936:D 0.000189766
2 *1819:Y 0.000189766
3 *1936:D *1936:CLK 2.68464e-05
*RES
1 *1819:Y *1936:D 6.065 
*END

*D_NET *257 0.00231401
*CONN
*I *1937:D I *D sky130_fd_sc_hd__dfrtp_4
*I *1820:Y O *D sky130_fd_sc_hd__nor4b_1
*CAP
1 *1937:D 0.00105693
2 *1820:Y 0.00105693
3 *1937:D *1935:CLK 2.04923e-05
4 mstream_o[114] *1937:D 0.000131356
5 *1935:D *1937:D 4.82919e-05
*RES
1 *1820:Y *1937:D 20.19 
*END

*D_NET *258 0.00143808
*CONN
*I *1833:D I *D sky130_fd_sc_hd__dfrtp_4
*I *1719:Y O *D sky130_fd_sc_hd__nor4b_1
*CAP
1 *1833:D 0.000563186
2 *1719:Y 0.000563186
3 *1833:D *1830:CLK 9.26463e-05
4 *1833:D *1830:D 1.56428e-05
5 *1833:D *1834:D 5.20968e-05
6 *1833:D *373:10 0.000151318
7 *1833:D *401:104 0
8 *1833:D *401:118 0
9 *1833:D *401:125 0
*RES
1 *1719:Y *1833:D 16.35 
*END

*D_NET *259 0.00114976
*CONN
*I *1834:D I *D sky130_fd_sc_hd__dfrtp_4
*I *1720:Y O *D sky130_fd_sc_hd__nor4b_1
*CAP
1 *1834:D 0.000325895
2 *1720:Y 0.000325895
3 *1834:D *1720:C 5.12969e-06
4 *1834:D *1832:CLK 9.26463e-05
5 *1834:D *1836:D 2.49909e-05
6 *1834:D *373:10 0.000294421
7 *1832:D *1834:D 2.86855e-05
8 *1833:D *1834:D 5.20968e-05
*RES
1 *1720:Y *1834:D 13.26 
*END

*D_NET *260 0.0019011
*CONN
*I *1835:D I *D sky130_fd_sc_hd__dfrtp_4
*I *1721:Y O *D sky130_fd_sc_hd__nor4b_1
*CAP
1 *1835:D 0.000546449
2 *1721:Y 0.000546449
3 *1835:D *1722:C 0.000310896
4 *1835:D *1834:CLK 5.83121e-06
5 *1835:D *1835:CLK 0.000118081
6 *1835:D *1836:D 1.00404e-05
7 *1835:D *358:6 8.62395e-05
8 *1835:D *372:47 7.9642e-06
9 *1835:D *372:60 0.000186803
10 *1835:D *374:8 8.23457e-05
11 *1835:D *382:18 0
12 *1722:D_N *1835:D 0
*RES
1 *1721:Y *1835:D 16.02 
*END

*D_NET *261 0.00106744
*CONN
*I *1836:D I *D sky130_fd_sc_hd__dfrtp_4
*I *1722:Y O *D sky130_fd_sc_hd__nor4b_1
*CAP
1 *1836:D 0.000341316
2 *1722:Y 0.000341316
3 *1836:D *1834:CLK 2.49909e-05
4 *1836:D *373:8 5.83121e-06
5 *1836:D *373:10 0.000266618
6 *1836:D *373:34 5.23362e-05
7 *1834:D *1836:D 2.49909e-05
8 *1835:D *1836:D 1.00404e-05
*RES
1 *1722:Y *1836:D 13.155 
*END

*D_NET *262 0.000760263
*CONN
*I *1837:D I *D sky130_fd_sc_hd__dfrtp_4
*I *1723:Y O *D sky130_fd_sc_hd__nor4b_1
*CAP
1 *1837:D 0.000320251
2 *1723:Y 0.000320251
3 *1837:D *1837:CLK 0.000119762
*RES
1 *1723:Y *1837:D 8.255 
*END

*D_NET *263 0.000989091
*CONN
*I *1838:D I *D sky130_fd_sc_hd__dfrtp_4
*I *1724:Y O *D sky130_fd_sc_hd__nor4b_1
*CAP
1 *1838:D 0.000326977
2 *1724:Y 0.000326977
3 *1838:D *1724:A 4.77719e-05
4 *1838:D *1725:B 1.52352e-05
5 *1838:D *1725:C 1.16854e-05
6 *1838:D *1838:CLK 4.98756e-05
7 *1838:D *1839:D 2.7228e-05
8 *1838:D *392:46 0.000183341
*RES
1 *1724:Y *1838:D 8.6 
*END

*D_NET *264 0.00074456
*CONN
*I *1839:D I *D sky130_fd_sc_hd__dfrtp_4
*I *1725:Y O *D sky130_fd_sc_hd__nor4b_1
*CAP
1 *1839:D 0.00028383
2 *1725:Y 0.00028383
3 *1839:D *1725:C 1.75875e-05
4 *1839:D *1838:CLK 9.52155e-05
5 *1839:D *1850:RESET_B 0
6 *1839:D *373:34 3.68682e-05
7 *1838:D *1839:D 2.7228e-05
*RES
1 *1725:Y *1839:D 11.205 
*END

*D_NET *265 0.000244503
*CONN
*I *1840:D I *D sky130_fd_sc_hd__dfrtp_4
*I *1726:Y O *D sky130_fd_sc_hd__nor4b_1
*CAP
1 *1840:D 0.000104702
2 *1726:Y 0.000104702
3 *1840:D *1840:CLK 3.50981e-05
*RES
1 *1726:Y *1840:D 4.685 
*END

*D_NET *266 0.000567756
*CONN
*I *1841:D I *D sky130_fd_sc_hd__dfrtp_4
*I *1727:Y O *D sky130_fd_sc_hd__nor4b_1
*CAP
1 *1841:D 0.000271382
2 *1727:Y 0.000271382
3 *1841:D *1841:CLK 2.49909e-05
*RES
1 *1727:Y *1841:D 7.1 
*END

*D_NET *267 0.000895346
*CONN
*I *1823:D I *D sky130_fd_sc_hd__dfrtp_4
*I *1709:Y O *D sky130_fd_sc_hd__nor4b_1
*CAP
1 *1823:D 0.000409456
2 *1709:Y 0.000409456
3 *1823:D *1709:C 2.68464e-05
4 *1823:D *1823:CLK 2.75145e-05
5 *1823:D *381:120 2.20732e-05
*RES
1 *1709:Y *1823:D 8.825 
*END

*D_NET *268 0.000291481
*CONN
*I *1842:D I *D sky130_fd_sc_hd__dfrtp_4
*I *1728:Y O *D sky130_fd_sc_hd__nor4b_1
*CAP
1 *1842:D 0.000111918
2 *1728:Y 0.000111918
3 *1842:D *1728:B 3.50152e-06
4 *1842:D *1728:C 5.12969e-06
5 *1842:D *1842:CLK 5.90151e-05
*RES
1 *1728:Y *1842:D 5.045 
*END

*D_NET *269 0.000597766
*CONN
*I *1843:D I *D sky130_fd_sc_hd__dfrtp_4
*I *1729:Y O *D sky130_fd_sc_hd__nor4b_1
*CAP
1 *1843:D 0.000298883
2 *1729:Y 0.000298883
*RES
1 *1729:Y *1843:D 7.1 
*END

*D_NET *270 0.000248282
*CONN
*I *1844:D I *D sky130_fd_sc_hd__dfrtp_4
*I *1730:Y O *D sky130_fd_sc_hd__nor4b_1
*CAP
1 *1844:D 8.96233e-05
2 *1730:Y 8.96233e-05
3 *1844:D *1844:CLK 4.98756e-05
4 *1844:D *374:88 1.91597e-05
*RES
1 *1730:Y *1844:D 4.685 
*END

*D_NET *271 0.000647467
*CONN
*I *1845:D I *D sky130_fd_sc_hd__dfrtp_4
*I *1731:Y O *D sky130_fd_sc_hd__nor4b_1
*CAP
1 *1845:D 0.000323733
2 *1731:Y 0.000323733
*RES
1 *1731:Y *1845:D 7.445 
*END

*D_NET *272 0.000237383
*CONN
*I *1846:D I *D sky130_fd_sc_hd__dfrtp_4
*I *1732:Y O *D sky130_fd_sc_hd__nor4b_1
*CAP
1 *1846:D 9.96388e-05
2 *1732:Y 9.96388e-05
3 *1846:D *1846:CLK 3.81051e-05
*RES
1 *1732:Y *1846:D 4.685 
*END

*D_NET *273 0.000715683
*CONN
*I *1847:D I *D sky130_fd_sc_hd__dfrtp_4
*I *1733:Y O *D sky130_fd_sc_hd__nor4b_1
*CAP
1 *1847:D 0.000293488
2 *1733:Y 0.000293488
3 *1847:D *1969:A 6.0114e-05
4 *1847:D *390:43 2.20732e-05
5 *1847:D *390:45 4.65196e-05
*RES
1 *1733:Y *1847:D 7.79 
*END

*D_NET *274 0.000219356
*CONN
*I *1848:D I *D sky130_fd_sc_hd__dfrtp_4
*I *1734:Y O *D sky130_fd_sc_hd__nor4b_1
*CAP
1 *1848:D 9.6255e-05
2 *1734:Y 9.6255e-05
3 *1848:D *1848:CLK 2.68464e-05
*RES
1 *1734:Y *1848:D 4.685 
*END

*D_NET *275 0.000606207
*CONN
*I *1849:D I *D sky130_fd_sc_hd__dfrtp_4
*I *1735:Y O *D sky130_fd_sc_hd__nor4b_1
*CAP
1 *1849:D 0.000229678
2 *1735:Y 0.000229678
3 *1849:D *1849:CLK 5.05437e-05
4 *1849:D *1968:A 2.54522e-05
5 *1849:D *382:8 7.08554e-05
*RES
1 *1735:Y *1849:D 7.1 
*END

*D_NET *276 0.000222529
*CONN
*I *1850:D I *D sky130_fd_sc_hd__dfrtp_4
*I *1736:Y O *D sky130_fd_sc_hd__nor4b_1
*CAP
1 *1850:D 0.000111265
2 *1736:Y 0.000111265
*RES
1 *1736:Y *1850:D 4.685 
*END

*D_NET *277 0.000565329
*CONN
*I *1851:D I *D sky130_fd_sc_hd__dfrtp_4
*I *1737:Y O *D sky130_fd_sc_hd__nor4b_1
*CAP
1 *1851:D 0.000213666
2 *1737:Y 0.000213666
3 *1851:D *433:DIODE 3.50562e-05
4 *1851:D *1737:A 2.93678e-05
5 *1851:D *1851:CLK 7.35729e-05
*RES
1 *1737:Y *1851:D 6.755 
*END

*D_NET *278 0.0010207
*CONN
*I *1824:D I *D sky130_fd_sc_hd__dfrtp_4
*I *1710:Y O *D sky130_fd_sc_hd__nor4b_1
*CAP
1 *1824:D 0.000258677
2 *1710:Y 0.000258677
3 *1824:D *1822:CLK 0.000386587
4 *1824:D *1827:D 5.4003e-05
5 *1822:D *1824:D 6.27538e-05
*RES
1 *1710:Y *1824:D 12.465 
*END

*D_NET *279 0.000216297
*CONN
*I *1852:D I *D sky130_fd_sc_hd__dfrtp_4
*I *1738:Y O *D sky130_fd_sc_hd__nor4b_1
*CAP
1 *1852:D 9.34637e-05
2 *1738:Y 9.34637e-05
3 *1852:D *1852:CLK 2.937e-05
*RES
1 *1738:Y *1852:D 4.685 
*END

*D_NET *280 0.000303695
*CONN
*I *1853:D I *D sky130_fd_sc_hd__dfrtp_4
*I *1940:LO O *D sky130_fd_sc_hd__conb_1
*CAP
1 *1853:D 0.000110174
2 *1940:LO 0.000110174
3 *1853:D *1853:RESET_B 8.33476e-05
*RES
1 *1940:LO *1853:D 5.045 
*END

*D_NET *281 0.000574608
*CONN
*I *1854:D I *D sky130_fd_sc_hd__dfrtp_4
*I *1739:Y O *D sky130_fd_sc_hd__nor4b_1
*CAP
1 *1854:D 0.000168462
2 *1739:Y 0.000168462
3 *1854:D *1739:C 8.65905e-05
4 *1854:D *1852:CLK 6.47516e-05
5 *1854:D *1856:D 5.4003e-05
6 *1854:D *390:37 3.23391e-05
*RES
1 *1739:Y *1854:D 10.065 
*END

*D_NET *282 0.000727763
*CONN
*I *1855:D I *D sky130_fd_sc_hd__dfrtp_4
*I *1740:Y O *D sky130_fd_sc_hd__nor4b_1
*CAP
1 *1855:D 0.00030168
2 *1740:Y 0.00030168
3 *1855:D *1740:B 4.66108e-05
4 *1855:D *1855:CLK 5.05521e-05
5 *1855:D *394:57 2.72392e-05
*RES
1 *1740:Y *1855:D 7.445 
*END

*D_NET *283 0.00132952
*CONN
*I *1856:D I *D sky130_fd_sc_hd__dfrtp_4
*I *1741:Y O *D sky130_fd_sc_hd__nor4b_1
*CAP
1 *1856:D 0.000335347
2 *1741:Y 0.000335347
3 *1856:D *1852:CLK 2.75538e-05
4 *1856:D *1854:CLK 1.30349e-05
5 *1856:D *1858:D 5.81675e-05
6 *1856:D *378:37 4.19797e-05
7 *1856:D *378:39 5.4256e-05
8 *1856:D *390:37 0.000409826
9 *1854:D *1856:D 5.4003e-05
*RES
1 *1741:Y *1856:D 14.175 
*END

*D_NET *284 0.000768611
*CONN
*I *1857:D I *D sky130_fd_sc_hd__dfrtp_4
*I *1742:Y O *D sky130_fd_sc_hd__nor4b_1
*CAP
1 *1857:D 0.000325217
2 *1742:Y 0.000325217
3 *1857:D *1742:B 4.66108e-05
4 *1857:D *1853:CLK 7.15651e-05
*RES
1 *1742:Y *1857:D 7.79 
*END

*D_NET *285 0.00109087
*CONN
*I *1858:D I *D sky130_fd_sc_hd__dfrtp_4
*I *1743:Y O *D sky130_fd_sc_hd__nor4b_1
*CAP
1 *1858:D 0.00025576
2 *1743:Y 0.00025576
3 *1858:D *1856:CLK 1.30349e-05
4 *1858:D *376:14 0.000166346
5 *1858:D *378:35 0.000166943
6 *1858:D *378:37 6.8197e-05
7 *1858:D *390:37 0.000106665
8 *1856:D *1858:D 5.81675e-05
*RES
1 *1743:Y *1858:D 13.38 
*END

*D_NET *286 0.000643421
*CONN
*I *1859:D I *D sky130_fd_sc_hd__dfrtp_4
*I *1744:Y O *D sky130_fd_sc_hd__nor4b_1
*CAP
1 *1859:D 0.000295453
2 *1744:Y 0.000295453
3 *1859:D *1744:B 2.49909e-05
4 *1859:D *1859:CLK 2.75229e-05
*RES
1 *1744:Y *1859:D 7.1 
*END

*D_NET *287 0.000983023
*CONN
*I *1860:D I *D sky130_fd_sc_hd__dfrtp_4
*I *1745:Y O *D sky130_fd_sc_hd__nor4b_1
*CAP
1 *1860:D 0.000254036
2 *1745:Y 0.000254036
3 *1860:D *1745:B 1.20052e-05
4 *1860:D *376:14 0.000296088
5 *1860:D *378:20 9.24127e-05
6 *1860:D *378:22 7.44453e-05
*RES
1 *1745:Y *1860:D 12.465 
*END

*D_NET *288 0.000688967
*CONN
*I *1861:D I *D sky130_fd_sc_hd__dfrtp_4
*I *1746:Y O *D sky130_fd_sc_hd__nor4b_1
*CAP
1 *1861:D 0.00026751
2 *1746:Y 0.00026751
3 *1861:D *1746:B 4.66108e-05
4 *1861:D *1861:CLK 2.49909e-05
5 *1861:D *1863:D 8.23457e-05
*RES
1 *1746:Y *1861:D 7.1 
*END

*D_NET *289 0.0015207
*CONN
*I *1825:D I *D sky130_fd_sc_hd__dfrtp_4
*I *1711:Y O *D sky130_fd_sc_hd__nor4b_1
*CAP
1 *1825:D 0.000514559
2 *1711:Y 0.000514559
3 *1825:D *1713:A 2.23589e-05
4 *1825:D *1713:B 8.64421e-05
5 *1825:D *1713:C 1.05984e-05
6 *1825:D *1823:CLK 6.88421e-05
7 *1825:D *1824:CLK 2.90601e-05
8 *1825:D *1825:CLK 2.67275e-05
9 *1825:D *1827:D 5.9843e-06
10 *1825:D *372:10 4.66108e-05
11 *1825:D *381:90 0
12 *1713:D_N *1825:D 0.000194962
*RES
1 *1711:Y *1825:D 14.97 
*END

*D_NET *290 0.00103525
*CONN
*I *1862:D I *D sky130_fd_sc_hd__dfrtp_4
*I *1747:Y O *D sky130_fd_sc_hd__nor4b_1
*CAP
1 *1862:D 0.000242739
2 *1747:Y 0.000242739
3 *1862:D *1747:B 0.000230799
4 *1862:D *1749:A 0.00015639
5 *1862:D *1749:B 2.10214e-05
6 *1862:D *1749:C 1.16854e-05
7 *1862:D *1864:D 8.68575e-05
8 *1862:D *403:42 4.30166e-05
*RES
1 *1747:Y *1862:D 8.6 
*END

*D_NET *291 0.00166654
*CONN
*I *1863:D I *D sky130_fd_sc_hd__dfrtp_4
*I *1748:Y O *D sky130_fd_sc_hd__nor4b_1
*CAP
1 *1863:D 0.000451333
2 *1748:Y 0.000451333
3 *1863:D *1748:B 3.50152e-06
4 *1863:D *1860:CLK 3.30142e-05
5 *1863:D *1864:D 0.00011686
6 *1863:D *376:14 0.000145326
7 *1863:D *378:10 7.1377e-05
8 *1863:D *378:16 0.000169549
9 *1863:D *378:18 0.000133588
10 *1863:D *378:20 8.30853e-06
11 *1861:D *1863:D 8.23457e-05
*RES
1 *1748:Y *1863:D 19.945 
*END

*D_NET *292 0.000966245
*CONN
*I *1864:D I *D sky130_fd_sc_hd__dfrtp_4
*I *1749:Y O *D sky130_fd_sc_hd__nor4b_1
*CAP
1 *1864:D 0.000222858
2 *1749:Y 0.000222858
3 *1864:D *376:10 0.000132089
4 *1864:D *376:14 0.000139252
5 *1864:D *376:43 4.54719e-05
6 *1862:D *1864:D 8.68575e-05
7 *1863:D *1864:D 0.00011686
*RES
1 *1749:Y *1864:D 12.36 
*END

*D_NET *293 0.000774733
*CONN
*I *1865:D I *D sky130_fd_sc_hd__dfrtp_4
*I *1750:Y O *D sky130_fd_sc_hd__nor4b_1
*CAP
1 *1865:D 0.00024644
2 *1750:Y 0.00024644
3 *1865:D *1865:CLK 4.82919e-05
4 *1865:D *1981:A 0.000233561
*RES
1 *1750:Y *1865:D 7.1 
*END

*D_NET *294 0.00113594
*CONN
*I *1866:D I *D sky130_fd_sc_hd__dfrtp_4
*I *1751:Y O *D sky130_fd_sc_hd__nor4b_1
*CAP
1 *1866:D 0.000404028
2 *1751:Y 0.000404028
3 *1866:D *1751:A 4.77719e-05
4 *1866:D *1751:B 8.35068e-05
5 *1866:D *1751:C 1.43253e-05
6 *1866:D *1753:A 6.367e-06
7 *1866:D *1868:D 9.35688e-05
8 *1753:D_N *1866:D 8.23457e-05
*RES
1 *1751:Y *1866:D 9.83 
*END

*D_NET *295 0.000768098
*CONN
*I *1867:D I *D sky130_fd_sc_hd__dfrtp_4
*I *1752:Y O *D sky130_fd_sc_hd__nor4b_1
*CAP
1 *1867:D 0.000254139
2 *1752:Y 0.000254139
3 *1867:D *1753:C 0.000119866
4 *1867:D *1866:CLK 6.71882e-05
5 *1867:D *376:49 2.49909e-05
6 *1867:D *385:77 4.77757e-05
*RES
1 *1752:Y *1867:D 7.445 
*END

*D_NET *296 0.000982852
*CONN
*I *1868:D I *D sky130_fd_sc_hd__dfrtp_4
*I *1753:Y O *D sky130_fd_sc_hd__nor4b_1
*CAP
1 *1868:D 0.000200809
2 *1753:Y 0.000200809
3 *1868:D *1869:CLK 4.54719e-05
4 *1868:D *376:43 9.54469e-05
5 *1868:D *376:71 0.00017354
6 *1868:D *377:12 0.000173207
7 *1866:D *1868:D 9.35688e-05
*RES
1 *1753:Y *1868:D 12.36 
*END

*D_NET *297 0.000904029
*CONN
*I *1869:D I *D sky130_fd_sc_hd__dfrtp_4
*I *1754:Y O *D sky130_fd_sc_hd__nor4b_1
*CAP
1 *1869:D 0.000322844
2 *1754:Y 0.000322844
3 *1869:D *359:8 0.00025834
*RES
1 *1754:Y *1869:D 7.37375 
*END

*D_NET *298 0.000937354
*CONN
*I *1870:D I *D sky130_fd_sc_hd__dfrtp_4
*I *1755:Y O *D sky130_fd_sc_hd__nor4b_1
*CAP
1 *1870:D 0.000177773
2 *1755:Y 0.000177773
3 *1870:D *1868:CLK 3.51081e-05
4 *1870:D *1869:CLK 9.30787e-05
5 *1870:D *360:12 0.000159329
6 *1870:D *377:12 0.000173191
7 *1870:D *390:37 0.000121102
*RES
1 *1755:Y *1870:D 12.36 
*END

*D_NET *299 0.000722738
*CONN
*I *1871:D I *D sky130_fd_sc_hd__dfrtp_4
*I *1756:Y O *D sky130_fd_sc_hd__nor4b_1
*CAP
1 *1871:D 0.000355931
2 *1756:Y 0.000355931
3 *1871:D *1756:B 1.08758e-05
*RES
1 *1756:Y *1871:D 7.79 
*END

*D_NET *300 0.00127042
*CONN
*I *1826:D I *D sky130_fd_sc_hd__dfrtp_4
*I *1712:Y O *D sky130_fd_sc_hd__nor4b_1
*CAP
1 *1826:D 0.000524888
2 *1712:Y 0.000524888
3 *1826:D *1827:CLK 2.76356e-05
4 *1826:D *1827:D 9.30717e-05
5 *1826:D *365:21 8.53113e-06
6 *1826:D *365:49 9.14049e-05
*RES
1 *1712:Y *1826:D 13.62 
*END

*D_NET *301 0.0010418
*CONN
*I *1872:D I *D sky130_fd_sc_hd__dfrtp_4
*I *1757:Y O *D sky130_fd_sc_hd__nor4b_1
*CAP
1 *1872:D 0.000215213
2 *1757:Y 0.000215213
3 *1872:D *1757:C 1.75875e-05
4 *1872:D *1870:CLK 0.000271877
5 *1872:D *375:16 0.000156842
6 *1872:D *377:12 0.000165068
*RES
1 *1757:Y *1872:D 12.465 
*END

*D_NET *302 0.00167633
*CONN
*I *1873:D I *D sky130_fd_sc_hd__dfrtp_4
*I *1758:Y O *D sky130_fd_sc_hd__nor4b_1
*CAP
1 *1873:D 0.000475081
2 *1758:Y 0.000475081
3 *1873:D *428:DIODE 8.23457e-05
4 *1873:D *1758:B 0.000194274
5 *1873:D *1758:C 0.000158539
6 *1873:D *1759:C 2.33708e-05
7 *1873:D *1872:CLK 3.64998e-06
8 *1873:D *1874:D 1.06624e-05
9 *1873:D *377:10 4.66108e-05
10 *1873:D *377:12 0.000153263
11 *1873:D *377:36 2.01779e-05
12 *1873:D *385:25 0
13 *1873:D *411:30 1.41165e-05
14 *1759:D_N *1873:D 1.91597e-05
*RES
1 *1758:Y *1873:D 15.765 
*END

*D_NET *303 0.00106854
*CONN
*I *1874:D I *D sky130_fd_sc_hd__dfrtp_4
*I *1759:Y O *D sky130_fd_sc_hd__nor4b_1
*CAP
1 *1874:D 0.0002223
2 *1759:Y 0.0002223
3 *1874:D *1759:C 1.75875e-05
4 *1874:D *1872:CLK 0.00013147
5 *1874:D *375:12 0.000156842
6 *1874:D *375:14 0.000128346
7 *1874:D *375:16 8.53113e-06
8 *1874:D *377:12 3.67779e-05
9 *1874:D *377:36 0.000103192
10 *1874:D *377:49 3.05295e-05
11 *1873:D *1874:D 1.06624e-05
*RES
1 *1759:Y *1874:D 12.465 
*END

*D_NET *304 0.00070064
*CONN
*I *1875:D I *D sky130_fd_sc_hd__dfrtp_4
*I *1760:Y O *D sky130_fd_sc_hd__nor4b_1
*CAP
1 *1875:D 0.000235066
2 *1760:Y 0.000235066
3 *1875:D *1760:B 5.83121e-06
4 *1875:D *1760:C 0
5 *1875:D *1875:CLK 4.82919e-05
6 *1875:D *1971:A 8.84306e-05
7 *1875:D *385:6 4.13445e-05
8 *1875:D *411:17 4.66108e-05
*RES
1 *1760:Y *1875:D 7.565 
*END

*D_NET *305 0.00023706
*CONN
*I *1876:D I *D sky130_fd_sc_hd__dfrtp_4
*I *1761:Y O *D sky130_fd_sc_hd__nor4b_1
*CAP
1 *1876:D 0.000105107
2 *1761:Y 0.000105107
3 *1876:D *1876:CLK 2.68464e-05
*RES
1 *1761:Y *1876:D 4.685 
*END

*D_NET *306 0.000612919
*CONN
*I *1877:D I *D sky130_fd_sc_hd__dfrtp_4
*I *1762:Y O *D sky130_fd_sc_hd__nor4b_1
*CAP
1 *1877:D 0.000222246
2 *1762:Y 0.000222246
3 *1877:D *427:DIODE 8.35068e-05
4 *1877:D *390:33 8.49205e-05
*RES
1 *1762:Y *1877:D 6.755 
*END

*D_NET *307 0.00106688
*CONN
*I *1878:D I *D sky130_fd_sc_hd__dfrtp_4
*I *1763:Y O *D sky130_fd_sc_hd__nor4b_1
*CAP
1 *1878:D 0.000339491
2 *1763:Y 0.000339491
3 *1878:D *1764:B 1.74236e-05
4 *1878:D *1764:C 0.000309554
5 *1878:D *1878:CLK 4.13752e-05
6 *1878:D *384:12 1.95458e-05
*RES
1 *1763:Y *1878:D 9.11 
*END

*D_NET *308 0.000780135
*CONN
*I *1879:D I *D sky130_fd_sc_hd__dfrtp_4
*I *1764:Y O *D sky130_fd_sc_hd__nor4b_1
*CAP
1 *1879:D 0.000282134
2 *1764:Y 0.000282134
3 *1879:D *1970:A 4.82863e-05
4 *1879:D *380:12 2.86967e-05
5 *1879:D *384:12 9.22308e-05
6 *1879:D *390:20 4.66526e-05
*RES
1 *1764:Y *1879:D 11.7 
*END

*D_NET *309 0.00160844
*CONN
*I *1880:D I *D sky130_fd_sc_hd__dfrtp_4
*I *1765:Y O *D sky130_fd_sc_hd__nor4b_1
*CAP
1 *1880:D 0.000369204
2 *1765:Y 0.000369204
3 *1880:D *1765:A 0.000276572
4 *1880:D *1766:B 0.000133657
5 *1880:D *1766:C 1.16854e-05
6 *1880:D *1881:D 0.000165285
7 *1880:D *390:16 7.47145e-05
8 *1766:D_N *1880:D 0.00020149
9 *237:14 *1880:D 6.62785e-06
*RES
1 *1765:Y *1880:D 15.135 
*END

*D_NET *310 0.000567356
*CONN
*I *1881:D I *D sky130_fd_sc_hd__dfrtp_4
*I *1766:Y O *D sky130_fd_sc_hd__nor4b_1
*CAP
1 *1881:D 0.000148422
2 *1766:Y 0.000148422
3 *1881:D *390:16 4.76581e-05
4 *1880:D *1881:D 0.000165285
5 *237:14 *1881:D 5.75674e-05
*RES
1 *1766:Y *1881:D 10.515 
*END

*D_NET *311 0.00152801
*CONN
*I *1827:D I *D sky130_fd_sc_hd__dfrtp_4
*I *1713:Y O *D sky130_fd_sc_hd__nor4b_1
*CAP
1 *1827:D 0.000556092
2 *1713:Y 0.000556092
3 *1827:D *1822:CLK 3.76596e-05
4 *1827:D *1824:CLK 2.17688e-05
5 *1827:D *1827:CLK 5.83121e-06
6 *1827:D *365:21 0.000184845
7 *1827:D *365:49 1.26626e-05
8 *1824:D *1827:D 5.4003e-05
9 *1825:D *1827:D 5.9843e-06
10 *1826:D *1827:D 9.30717e-05
*RES
1 *1713:Y *1827:D 16.65 
*END

*D_NET *312 0.000274971
*CONN
*I *1882:D I *D sky130_fd_sc_hd__dfrtp_4
*I *1767:Y O *D sky130_fd_sc_hd__nor4b_1
*CAP
1 *1882:D 9.94636e-05
2 *1767:Y 9.94636e-05
3 *1882:D *1882:CLK 2.937e-05
4 *1882:D *380:51 4.66742e-05
*RES
1 *1767:Y *1882:D 4.685 
*END

*D_NET *313 0.000651186
*CONN
*I *1883:D I *D sky130_fd_sc_hd__dfrtp_4
*I *1768:Y O *D sky130_fd_sc_hd__nor4b_1
*CAP
1 *1883:D 0.000316405
2 *1768:Y 0.000316405
3 *1883:D *1768:A 1.83756e-05
*RES
1 *1768:Y *1883:D 7.445 
*END

*D_NET *314 0.00023215
*CONN
*I *1884:D I *D sky130_fd_sc_hd__dfrtp_4
*I *1769:Y O *D sky130_fd_sc_hd__nor4b_1
*CAP
1 *1884:D 9.31075e-05
2 *1769:Y 9.31075e-05
3 *1884:D *1884:CLK 4.59354e-05
*RES
1 *1769:Y *1884:D 4.685 
*END

*D_NET *315 0.000407471
*CONN
*I *1885:D I *D sky130_fd_sc_hd__dfrtp_4
*I *1939:LO O *D sky130_fd_sc_hd__conb_1
*CAP
1 *1885:D 0.000203736
2 *1939:LO 0.000203736
*RES
1 *1939:LO *1885:D 9.72 
*END

*D_NET *316 0.00023529
*CONN
*I *1886:D I *D sky130_fd_sc_hd__dfrtp_4
*I *1770:Y O *D sky130_fd_sc_hd__nor4b_1
*CAP
1 *1886:D 9.03889e-05
2 *1770:Y 9.03889e-05
3 *1886:D *1886:CLK 4.98756e-05
4 *1886:D *1887:D 4.6368e-06
*RES
1 *1770:Y *1886:D 4.685 
*END

*D_NET *317 0.00162772
*CONN
*I *1887:D I *D sky130_fd_sc_hd__dfrtp_4
*I *1771:Y O *D sky130_fd_sc_hd__nor4b_1
*CAP
1 *1887:D 0.000581877
2 *1771:Y 0.000581877
3 *1887:D *1770:B 0.00023806
4 *1887:D *1770:C 1.16854e-05
5 *1887:D *1886:CLK 2.12738e-05
6 *1887:D *1887:CLK 8.80267e-05
7 *1887:D *361:18 4.7101e-05
8 *1887:D *379:8 4.25177e-05
9 *1770:D_N *1887:D 1.06624e-05
10 *1886:D *1887:D 4.6368e-06
*RES
1 *1771:Y *1887:D 14.865 
*END

*D_NET *318 0.000863091
*CONN
*I *1888:D I *D sky130_fd_sc_hd__dfrtp_4
*I *1772:Y O *D sky130_fd_sc_hd__nor4b_1
*CAP
1 *1888:D 0.000281416
2 *1772:Y 0.000281416
3 *1888:D *1890:CLK 2.17688e-05
4 *1888:D *379:25 3.09233e-05
5 *1888:D *379:40 0.000247567
*RES
1 *1772:Y *1888:D 11.85 
*END

*D_NET *319 0.000690777
*CONN
*I *1889:D I *D sky130_fd_sc_hd__dfrtp_4
*I *1773:Y O *D sky130_fd_sc_hd__nor4b_1
*CAP
1 *1889:D 0.000310818
2 *1773:Y 0.000310818
3 *1889:D *1773:A 2.49909e-05
4 *1889:D *1889:CLK 4.41506e-05
*RES
1 *1773:Y *1889:D 7.445 
*END

*D_NET *320 0.000904959
*CONN
*I *1890:D I *D sky130_fd_sc_hd__dfrtp_4
*I *1774:Y O *D sky130_fd_sc_hd__nor4b_1
*CAP
1 *1890:D 0.000265775
2 *1774:Y 0.000265775
3 *1890:D *1893:CLK 0.000139238
4 *1890:D *379:40 8.53113e-06
5 *1890:D *379:53 0.000139252
6 *1890:D *396:202 8.6387e-05
*RES
1 *1774:Y *1890:D 11.85 
*END

*D_NET *321 0.000723188
*CONN
*I *1891:D I *D sky130_fd_sc_hd__dfrtp_4
*I *1775:Y O *D sky130_fd_sc_hd__nor4b_1
*CAP
1 *1891:D 0.00023218
2 *1775:Y 0.00023218
3 *1891:D *362:8 0.000212218
4 *1891:D *412:53 4.66108e-05
*RES
1 *1775:Y *1891:D 7.1 
*END

*D_NET *322 0.000999791
*CONN
*I *1828:D I *D sky130_fd_sc_hd__dfrtp_4
*I *1714:Y O *D sky130_fd_sc_hd__nor4b_1
*CAP
1 *1828:D 0.00020393
2 *1714:Y 0.00020393
3 *1828:D *1716:C 6.35284e-05
4 *1828:D *1828:CLK 6.76978e-05
5 *1828:D *1830:D 8.8919e-05
6 *1828:D *381:66 0.000118489
7 *1828:D *381:68 0.000121817
8 *1828:D *382:120 4.77719e-05
9 *1828:D *391:53 2.59926e-05
10 *1716:D_N *1828:D 5.77162e-05
*RES
1 *1714:Y *1828:D 8.6 
*END

*D_NET *323 0.000974627
*CONN
*I *1892:D I *D sky130_fd_sc_hd__dfrtp_4
*I *1776:Y O *D sky130_fd_sc_hd__nor4b_1
*CAP
1 *1892:D 0.000219294
2 *1776:Y 0.000219294
3 *1892:D *1893:CLK 0.000141599
4 *1892:D *1894:CLK 2.17688e-05
5 *1892:D *366:10 7.06865e-05
6 *1892:D *367:51 3.13459e-05
7 *1892:D *396:202 0.00027064
*RES
1 *1776:Y *1892:D 11.85 
*END

*D_NET *324 0.00141956
*CONN
*I *1893:D I *D sky130_fd_sc_hd__dfrtp_4
*I *1777:Y O *D sky130_fd_sc_hd__nor4b_1
*CAP
1 *1893:D 0.000389656
2 *1777:Y 0.000389656
3 *1893:D *1774:B 4.11718e-05
4 *1893:D *1777:C 2.42043e-05
5 *1893:D *1893:CLK 4.66108e-05
6 *1893:D *1952:A 2.49909e-05
7 *1893:D *366:10 0.000240059
8 *1893:D *386:144 2.58642e-05
9 *1893:D *386:148 5.83121e-06
10 *1774:D_N *1893:D 4.77757e-05
11 *237:14 *1893:D 0.000183738
*RES
1 *1777:Y *1893:D 15.42 
*END

*D_NET *325 0.00103464
*CONN
*I *1894:D I *D sky130_fd_sc_hd__dfrtp_4
*I *1778:Y O *D sky130_fd_sc_hd__nor4b_1
*CAP
1 *1894:D 0.000198865
2 *1778:Y 0.000198865
3 *1894:D *1896:D 8.6387e-05
4 *1894:D *366:10 8.53113e-06
5 *1894:D *366:23 0.000268987
6 *1894:D *396:202 0.000273001
*RES
1 *1778:Y *1894:D 11.85 
*END

*D_NET *326 0.000739121
*CONN
*I *1895:D I *D sky130_fd_sc_hd__dfrtp_4
*I *1779:Y O *D sky130_fd_sc_hd__nor4b_1
*CAP
1 *1895:D 0.000268278
2 *1779:Y 0.000268278
3 *1895:D *1895:CLK 2.49909e-05
4 *1895:D *1983:A 0.000121023
5 *1895:D *397:6 7.10593e-06
6 *1895:D *413:41 4.94457e-05
*RES
1 *1779:Y *1895:D 7.1 
*END

*D_NET *327 0.000970322
*CONN
*I *1896:D I *D sky130_fd_sc_hd__dfrtp_4
*I *1780:Y O *D sky130_fd_sc_hd__nor4b_1
*CAP
1 *1896:D 0.000316775
2 *1780:Y 0.000316775
3 *1896:D *1778:B 1.41165e-05
4 *1896:D *1778:C 1.16854e-05
5 *1896:D *1780:A 3.96653e-05
6 *1896:D *1896:CLK 2.68464e-05
7 *1778:D_N *1896:D 0.000158072
8 *1894:D *1896:D 8.6387e-05
*RES
1 *1780:Y *1896:D 8.6 
*END

*D_NET *328 0.000686105
*CONN
*I *1897:D I *D sky130_fd_sc_hd__dfrtp_4
*I *1781:Y O *D sky130_fd_sc_hd__nor4b_1
*CAP
1 *1897:D 0.000305954
2 *1781:Y 0.000305954
3 *1897:D *1781:A 2.75145e-05
4 *1897:D *1897:CLK 4.66826e-05
*RES
1 *1781:Y *1897:D 7.445 
*END

*D_NET *329 0.000245086
*CONN
*I *1898:D I *D sky130_fd_sc_hd__dfrtp_4
*I *1782:Y O *D sky130_fd_sc_hd__nor4b_1
*CAP
1 *1898:D 9.954e-05
2 *1782:Y 9.954e-05
3 *1898:D *1898:CLK 4.60061e-05
*RES
1 *1782:Y *1898:D 4.685 
*END

*D_NET *330 0.000625639
*CONN
*I *1899:D I *D sky130_fd_sc_hd__dfrtp_4
*I *1783:Y O *D sky130_fd_sc_hd__nor4b_1
*CAP
1 *1899:D 0.000300324
2 *1783:Y 0.000300324
3 *1899:D *1783:A 2.49909e-05
*RES
1 *1783:Y *1899:D 7.1 
*END

*D_NET *331 0.000249024
*CONN
*I *1900:D I *D sky130_fd_sc_hd__dfrtp_4
*I *1784:Y O *D sky130_fd_sc_hd__nor4b_1
*CAP
1 *1900:D 8.65238e-05
2 *1784:Y 8.65238e-05
3 *1900:D *1900:CLK 4.60061e-05
4 *1900:D *396:202 2.997e-05
*RES
1 *1784:Y *1900:D 4.685 
*END

*D_NET *332 0.00054167
*CONN
*I *1901:D I *D sky130_fd_sc_hd__dfrtp_4
*I *1785:Y O *D sky130_fd_sc_hd__nor4b_1
*CAP
1 *1901:D 0.00024753
2 *1785:Y 0.00024753
3 *1901:D *1785:A 4.66108e-05
*RES
1 *1785:Y *1901:D 6.755 
*END

*D_NET *333 0.000711242
*CONN
*I *1829:D I *D sky130_fd_sc_hd__dfrtp_4
*I *1715:Y O *D sky130_fd_sc_hd__nor4b_1
*CAP
1 *1829:D 0.000325482
2 *1715:Y 0.000325482
3 *1829:D *1715:A 4.82863e-05
4 *1829:D *1716:B 1.19928e-05
*RES
1 *1715:Y *1829:D 7.445 
*END

*D_NET *334 0.000258395
*CONN
*I *1902:D I *D sky130_fd_sc_hd__dfrtp_4
*I *1786:Y O *D sky130_fd_sc_hd__nor4b_1
*CAP
1 *1902:D 8.21846e-05
2 *1786:Y 8.21846e-05
3 *1902:D *1902:CLK 4.98756e-05
4 *1902:D *367:105 4.41506e-05
*RES
1 *1786:Y *1902:D 4.685 
*END

*D_NET *335 0.000792875
*CONN
*I *1903:D I *D sky130_fd_sc_hd__dfrtp_4
*I *1787:Y O *D sky130_fd_sc_hd__nor4b_1
*CAP
1 *1903:D 0.000280598
2 *1787:Y 0.000280598
3 *1903:D *1787:A 2.49909e-05
4 *1903:D *413:8 8.34281e-06
5 *1903:D *416:82 7.55432e-05
6 *1903:D *416:124 0.000122801
*RES
1 *1787:Y *1903:D 7.445 
*END

*D_NET *336 0.000245005
*CONN
*I *1904:D I *D sky130_fd_sc_hd__dfrtp_4
*I *1788:Y O *D sky130_fd_sc_hd__nor4b_1
*CAP
1 *1904:D 9.94996e-05
2 *1788:Y 9.94996e-05
3 *1904:D *1904:CLK 4.60061e-05
*RES
1 *1788:Y *1904:D 4.685 
*END

*D_NET *337 0.000645674
*CONN
*I *1905:D I *D sky130_fd_sc_hd__dfrtp_4
*I *1789:Y O *D sky130_fd_sc_hd__nor4b_1
*CAP
1 *1905:D 0.000319921
2 *1789:Y 0.000319921
3 *1905:D *1789:A 5.83121e-06
*RES
1 *1789:Y *1905:D 7.445 
*END

*D_NET *338 0.000210747
*CONN
*I *1906:D I *D sky130_fd_sc_hd__dfrtp_4
*I *1790:Y O *D sky130_fd_sc_hd__nor4b_1
*CAP
1 *1906:D 0.000105373
2 *1790:Y 0.000105373
*RES
1 *1790:Y *1906:D 4.685 
*END

*D_NET *339 0.00080501
*CONN
*I *1907:D I *D sky130_fd_sc_hd__dfrtp_4
*I *1791:Y O *D sky130_fd_sc_hd__nor4b_1
*CAP
1 *1907:D 0.000236356
2 *1791:Y 0.000236356
3 *1907:D *453:DIODE 0.000158656
4 *1907:D *1791:A 1.16578e-05
5 *1907:D *412:6 0.000161984
6 *1907:D *412:23 0
*RES
1 *1791:Y *1907:D 7.91 
*END

*D_NET *340 0.000262043
*CONN
*I *1908:D I *D sky130_fd_sc_hd__dfrtp_4
*I *1792:Y O *D sky130_fd_sc_hd__nor4b_1
*CAP
1 *1908:D 0.000117598
2 *1792:Y 0.000117598
3 *1908:D *1908:CLK 2.68464e-05
*RES
1 *1792:Y *1908:D 4.685 
*END

*D_NET *341 0.000805636
*CONN
*I *1909:D I *D sky130_fd_sc_hd__dfrtp_4
*I *1793:Y O *D sky130_fd_sc_hd__nor4b_1
*CAP
1 *1909:D 0.00026145
2 *1793:Y 0.00026145
3 *1909:D *1793:A 4.82863e-05
4 *1909:D *1909:CLK 0.000119762
5 *1909:D *398:6 4.8854e-05
6 *1909:D *398:10 6.58339e-05
*RES
1 *1793:Y *1909:D 7.79 
*END

*D_NET *342 0.000255384
*CONN
*I *1910:D I *D sky130_fd_sc_hd__dfrtp_4
*I *1794:Y O *D sky130_fd_sc_hd__nor4b_1
*CAP
1 *1910:D 0.000112441
2 *1794:Y 0.000112441
3 *1910:D *1910:CLK 3.05027e-05
*RES
1 *1794:Y *1910:D 4.685 
*END

*D_NET *343 0.000712792
*CONN
*I *1911:D I *D sky130_fd_sc_hd__dfrtp_4
*I *1795:Y O *D sky130_fd_sc_hd__nor4b_1
*CAP
1 *1911:D 0.000301466
2 *1795:Y 0.000301466
3 *1911:D *1795:A 2.75145e-05
4 *1911:D *1911:CLK 8.23457e-05
*RES
1 *1795:Y *1911:D 7.445 
*END

*D_NET *344 0.00125674
*CONN
*I *1830:D I *D sky130_fd_sc_hd__dfrtp_4
*I *1716:Y O *D sky130_fd_sc_hd__nor4b_1
*CAP
1 *1830:D 0.000393284
2 *1716:Y 0.000393284
3 *1830:D *1828:CLK 0.000140912
4 *1830:D *365:49 6.0016e-05
5 *1830:D *373:10 0.000164679
6 *1828:D *1830:D 8.8919e-05
7 *1833:D *1830:D 1.56428e-05
*RES
1 *1716:Y *1830:D 14.175 
*END

*D_NET *345 0.000262043
*CONN
*I *1912:D I *D sky130_fd_sc_hd__dfrtp_4
*I *1796:Y O *D sky130_fd_sc_hd__nor4b_1
*CAP
1 *1912:D 0.000117598
2 *1796:Y 0.000117598
3 *1912:D *1912:CLK 2.68464e-05
*RES
1 *1796:Y *1912:D 4.685 
*END

*D_NET *346 0.00084291
*CONN
*I *1913:D I *D sky130_fd_sc_hd__dfrtp_4
*I *1797:Y O *D sky130_fd_sc_hd__nor4b_1
*CAP
1 *1913:D 0.000256388
2 *1797:Y 0.000256388
3 *1913:D *1913:CLK 1.16578e-05
4 *1913:D *1914:CLK 0.000135317
5 *1913:D *1914:D 5.84698e-05
6 *1913:D *368:10 5.23362e-05
7 *1913:D *368:12 7.23533e-05
*RES
1 *1797:Y *1913:D 12.165 
*END

*D_NET *347 0.00101397
*CONN
*I *1914:D I *D sky130_fd_sc_hd__dfrtp_4
*I *1798:Y O *D sky130_fd_sc_hd__nor4b_1
*CAP
1 *1914:D 0.000311671
2 *1798:Y 0.000311671
3 *1914:D *1914:CLK 8.64421e-05
4 *1914:D *388:81 1.41165e-05
5 *1914:D *414:17 0.000231596
6 *1913:D *1914:D 5.84698e-05
*RES
1 *1798:Y *1914:D 8.135 
*END

*D_NET *348 0.000774054
*CONN
*I *1915:D I *D sky130_fd_sc_hd__dfrtp_4
*I *1799:Y O *D sky130_fd_sc_hd__nor4b_1
*CAP
1 *1915:D 0.000211395
2 *1799:Y 0.000211395
3 *1915:D *1797:C 0.000119866
4 *1915:D *1799:B 4.66108e-05
5 *1915:D *1915:CLK 8.49205e-05
6 *1915:D *416:10 4.4587e-05
7 *1915:D *416:74 1.41095e-05
8 *2002:A *1915:D 4.11718e-05
*RES
1 *1799:Y *1915:D 7.445 
*END

*D_NET *349 0.000250412
*CONN
*I *1916:D I *D sky130_fd_sc_hd__dfrtp_4
*I *1800:Y O *D sky130_fd_sc_hd__nor4b_1
*CAP
1 *1916:D 0.000111783
2 *1800:Y 0.000111783
3 *1916:D *1916:CLK 2.68464e-05
*RES
1 *1800:Y *1916:D 4.685 
*END

*D_NET *350 0.000396851
*CONN
*I *1917:D I *D sky130_fd_sc_hd__dfrtp_4
*I *1938:LO O *D sky130_fd_sc_hd__conb_1
*CAP
1 *1917:D 0.000198426
2 *1938:LO 0.000198426
*RES
1 *1938:LO *1917:D 9.72 
*END

*D_NET *351 0.000260247
*CONN
*I *1918:D I *D sky130_fd_sc_hd__dfrtp_4
*I *1801:Y O *D sky130_fd_sc_hd__nor4b_1
*CAP
1 *1918:D 9.56018e-05
2 *1801:Y 9.56018e-05
3 *1918:D *1918:CLK 6.90438e-05
*RES
1 *1801:Y *1918:D 4.685 
*END

*D_NET *352 0.000663734
*CONN
*I *1919:D I *D sky130_fd_sc_hd__dfrtp_4
*I *1802:Y O *D sky130_fd_sc_hd__nor4b_1
*CAP
1 *1919:D 0.000319372
2 *1802:Y 0.000319372
3 *1919:D *398:137 2.49909e-05
*RES
1 *1802:Y *1919:D 7.445 
*END

*D_NET *353 0.00023706
*CONN
*I *1920:D I *D sky130_fd_sc_hd__dfrtp_4
*I *1803:Y O *D sky130_fd_sc_hd__nor4b_1
*CAP
1 *1920:D 0.000105107
2 *1803:Y 0.000105107
3 *1920:D *1920:CLK 2.68464e-05
*RES
1 *1803:Y *1920:D 4.685 
*END

*D_NET *354 0.00088102
*CONN
*I *1921:D I *D sky130_fd_sc_hd__dfrtp_4
*I *1804:Y O *D sky130_fd_sc_hd__nor4b_1
*CAP
1 *1921:D 0.000191457
2 *1804:Y 0.000191457
3 *1921:D *423:DIODE 0.000159329
4 *1921:D *1804:A 4.66108e-05
5 *1921:D *1921:CLK 8.49205e-05
6 *1921:D *356:130 0.0001249
7 *1921:D *388:168 8.23457e-05
*RES
1 *1804:Y *1921:D 7.445 
*END

*D_NET *355 0.000619554
*CONN
*I *1831:D I *D sky130_fd_sc_hd__dfrtp_4
*I *1717:Y O *D sky130_fd_sc_hd__nor4b_1
*CAP
1 *1831:D 0.00029602
2 *1717:Y 0.00029602
3 *1831:D *1717:A 2.75145e-05
*RES
1 *1717:Y *1831:D 7.1 
*END

*D_NET *356 0.0308631
*CONN
*I *424:DIODE I *D sky130_fd_sc_hd__diode_2
*I *1950:A I *D sky130_fd_sc_hd__clkbuf_8
*I *1949:A I *D sky130_fd_sc_hd__clkbuf_8
*I *423:DIODE I *D sky130_fd_sc_hd__diode_2
*I *422:DIODE I *D sky130_fd_sc_hd__diode_2
*I *1948:A I *D sky130_fd_sc_hd__clkbuf_8
*I *421:DIODE I *D sky130_fd_sc_hd__diode_2
*I *1947:A I *D sky130_fd_sc_hd__clkbuf_8
*I *419:DIODE I *D sky130_fd_sc_hd__diode_2
*I *1945:A I *D sky130_fd_sc_hd__clkbuf_8
*I *420:DIODE I *D sky130_fd_sc_hd__diode_2
*I *1946:A I *D sky130_fd_sc_hd__clkbuf_8
*I *417:DIODE I *D sky130_fd_sc_hd__diode_2
*I *1943:A I *D sky130_fd_sc_hd__clkbuf_8
*I *418:DIODE I *D sky130_fd_sc_hd__diode_2
*I *1944:A I *D sky130_fd_sc_hd__clkbuf_8
*I *1942:X O *D sky130_fd_sc_hd__clkbuf_16
*CAP
1 *424:DIODE 7.79629e-05
2 *1950:A 0
3 *1949:A 0.000602173
4 *423:DIODE 0.000109062
5 *422:DIODE 5.16345e-05
6 *1948:A 0
7 *421:DIODE 7.16415e-05
8 *1947:A 6.51595e-05
9 *419:DIODE 9.21437e-05
10 *1945:A 5.02911e-05
11 *420:DIODE 3.40167e-05
12 *1946:A 8.12278e-05
13 *417:DIODE 0
14 *1943:A 0.000111735
15 *418:DIODE 5.05786e-05
16 *1944:A 0
17 *1942:X 0.000137357
18 *356:158 0.000380606
19 *356:130 0.00164922
20 *356:126 0.00431447
21 *356:112 5.16345e-05
22 *356:110 0.00315581
23 *356:92 0.000136801
24 *356:90 0.00134801
25 *356:70 0.000142435
26 *356:52 0.000115244
27 *356:36 0.000111735
28 *356:22 0.000200398
29 *356:18 0.00282118
30 *356:16 0.00306978
31 *356:12 0.000569075
32 *356:10 0.00146206
33 *356:8 0.0026948
34 *1949:A *1805:B 0.000108857
35 *1949:A *1921:CLK 2.59981e-05
36 *1949:A *414:144 0
37 *356:10 *410:83 0
38 *356:16 *410:70 0.000379943
39 *356:16 *410:83 0
40 *356:18 *410:26 9.40306e-05
41 *356:18 *410:44 0.00135119
42 *356:18 *410:55 3.9442e-05
43 *356:18 *410:70 0.0013405
44 *356:22 *410:26 0.000140194
45 *356:90 *410:101 0.00048579
46 *356:110 *410:101 3.45731e-05
47 *356:126 *410:101 0.000231587
48 *356:126 *410:121 0.000884085
49 *356:126 *410:141 0.000729497
50 *356:130 *1921:RESET_B 0.000110092
51 *356:158 *1917:CLK 0
52 *356:158 *410:141 6.15794e-05
53 busy_o *356:90 0
54 busy_o *356:110 0
55 busy_o *356:126 0
56 mstream_o[100] *356:158 0
57 mstream_o[13] *418:DIODE 0.000122801
58 mstream_o[14] *1943:A 6.97118e-05
59 mstream_o[46] *420:DIODE 2.10214e-05
60 mstream_o[46] *1946:A 5.05437e-05
61 mstream_o[47] *419:DIODE 3.66977e-05
62 mstream_o[57] *356:8 0.000114858
63 mstream_o[69] *422:DIODE 0.000123592
64 mstream_o[97] *356:126 0
65 mstream_o[98] *356:126 0
66 mstream_o[99] *356:130 0.000148883
67 mstream_o[99] *356:158 0
68 *1805:D_N *1949:A 2.10046e-05
69 *1921:D *423:DIODE 0.000159329
70 *1921:D *356:130 0.0001249
71 *1922:D *1949:A 9.4126e-05
72 *3:9 *356:10 0
73 *3:9 *356:12 0
74 *3:9 *356:16 0
75 *3:9 *356:18 0
76 *3:9 *356:22 0
77 *3:9 *356:90 0
*RES
1 *1942:X *356:8 5.43 
2 *356:8 *356:10 20.505 
3 *356:10 *356:12 2.145 
4 *356:12 *356:16 7.6275 
5 *356:16 *356:18 58.3125 
6 *356:18 *356:22 4.91 
7 *356:22 *1944:A 1.6 
8 *356:22 *418:DIODE 2.74 
9 *356:18 *356:36 2 
10 *356:36 *1943:A 3.1 
11 *356:36 *417:DIODE 1.6 
12 *356:12 *356:52 2 
13 *356:52 *1946:A 2.755 
14 *356:52 *420:DIODE 2.05 
15 *356:10 *356:70 2 
16 *356:70 *1945:A 2.47 
17 *356:70 *419:DIODE 2.74 
18 *356:8 *356:90 23.1 
19 *356:90 *356:92 2 
20 *356:92 *1947:A 2.41 
21 *356:92 *421:DIODE 2.395 
22 *356:90 *356:110 1.38 
23 *356:110 *356:112 2 
24 *356:112 *1948:A 1.6 
25 *356:112 *422:DIODE 2.74 
26 *356:110 *356:126 60.795 
27 *356:126 *356:130 13.145 
28 *356:130 *423:DIODE 3.085 
29 *356:130 *1949:A 13.55 
30 *356:126 *356:158 6.89 
31 *356:158 *1950:A 1.6 
32 *356:158 *424:DIODE 2.74 
*END

*D_NET *357 0.00522703
*CONN
*I *1951:A I *D sky130_fd_sc_hd__clkbuf_16
*I *1958:A I *D sky130_fd_sc_hd__clkbuf_16
*I *1943:X O *D sky130_fd_sc_hd__clkbuf_8
*CAP
1 *1951:A 0
2 *1958:A 0.00024828
3 *1943:X 0.00197268
4 *357:20 0.00222096
5 *1958:A *365:8 6.34721e-05
6 *1958:A *372:10 4.94457e-05
7 *1958:A *381:90 6.65066e-05
8 *357:20 *1826:RESET_B 5.35969e-06
9 *357:20 *365:8 8.12896e-06
10 *357:20 *365:19 9.26463e-05
11 *357:20 *401:62 0
12 *357:20 *401:69 0
13 *357:20 *401:76 0
14 *357:20 *401:92 0
15 *357:20 *401:104 0
16 *357:20 *401:118 0
17 *357:20 *401:125 0
18 *357:20 *401:132 0
19 *357:20 *401:139 0
20 *357:20 *401:150 0
21 mstream_o[12] *357:20 4.48613e-05
22 mstream_o[4] *357:20 2.937e-05
23 mstream_o[7] *357:20 8.7562e-05
24 *2:13 *357:20 0.000337762
*RES
1 *1943:X *357:20 35.6 
2 *357:20 *1958:A 10.295 
3 *357:20 *1951:A 1.6 
*END

*D_NET *358 0.00316485
*CONN
*I *1960:A I *D sky130_fd_sc_hd__clkbuf_16
*I *1959:A I *D sky130_fd_sc_hd__clkbuf_16
*I *1944:X O *D sky130_fd_sc_hd__clkbuf_8
*CAP
1 *1960:A 2.08101e-05
2 *1959:A 0.000514981
3 *1944:X 0.000732744
4 *358:6 0.00126853
5 *1959:A *374:8 1.83756e-05
6 *1959:A *382:18 0.000116853
7 *358:6 *1835:CLK 0.000118081
8 *358:6 *374:8 8.453e-05
9 mstream_o[13] *358:6 8.51862e-05
10 *1722:D_N *1959:A 0.000118513
11 *1835:D *358:6 8.62395e-05
*RES
1 *1944:X *358:6 13.435 
2 *358:6 *1959:A 12.995 
3 *358:6 *1960:A 1.96 
*END

*D_NET *359 0.00553858
*CONN
*I *1961:A I *D sky130_fd_sc_hd__clkbuf_16
*I *1962:A I *D sky130_fd_sc_hd__clkbuf_16
*I *1945:X O *D sky130_fd_sc_hd__clkbuf_8
*CAP
1 *1961:A 0.000480693
2 *1962:A 0.000493263
3 *1945:X 0.000901752
4 *359:8 0.00187571
5 *1961:A *1963:A 0
6 *1961:A *394:157 0.000471219
7 *1962:A *1963:A 0
8 *1962:A *1964:A 0
9 *1962:A *394:157 0.000450837
10 *359:8 *1754:B 4.11779e-05
11 *359:8 *1754:C 4.77719e-05
12 *359:8 *1869:CLK 2.75229e-05
13 *359:8 *1869:RESET_B 4.49945e-05
14 *359:8 *385:52 4.88478e-05
15 mstream_o[47] *359:8 5.05437e-05
16 *1754:D_N *359:8 0.00034591
17 *1869:D *359:8 0.00025834
*RES
1 *1945:X *359:8 19.92 
2 *359:8 *1962:A 13.65 
3 *359:8 *1961:A 13.905 
*END

*D_NET *360 0.00663796
*CONN
*I *1963:A I *D sky130_fd_sc_hd__clkbuf_16
*I *1964:A I *D sky130_fd_sc_hd__clkbuf_16
*I *1946:X O *D sky130_fd_sc_hd__clkbuf_8
*CAP
1 *1963:A 0.000648578
2 *1964:A 0.000729895
3 *1946:X 0.00153942
4 *360:12 0.00291789
5 *1964:A *394:157 0
6 *360:12 *1755:A 0.000194278
7 *360:12 *1755:C 2.72392e-05
8 *360:12 *1868:CLK 3.1562e-06
9 mstream_o[46] *360:12 7.54285e-05
10 *1751:D_N *1964:A 0
11 *1752:D_N *1964:A 0
12 *1754:D_N *1963:A 0
13 *1755:D_N *1963:A 0
14 *1755:D_N *1964:A 0
15 *1755:D_N *360:12 0.000342741
16 *1756:D_N *1963:A 0
17 *1757:D_N *1963:A 0
18 *1758:D_N *1963:A 0
19 *1870:D *360:12 0.000159329
20 *1961:A *1963:A 0
21 *1962:A *1963:A 0
22 *1962:A *1964:A 0
*RES
1 *1946:X *360:12 22.02 
2 *360:12 *1964:A 14.865 
3 *360:12 *1963:A 13.695 
*END

*D_NET *361 0.00586118
*CONN
*I *1965:A I *D sky130_fd_sc_hd__clkbuf_16
*I *1966:A I *D sky130_fd_sc_hd__clkbuf_16
*I *1947:X O *D sky130_fd_sc_hd__clkbuf_8
*CAP
1 *1965:A 0
2 *1966:A 0.00107968
3 *1947:X 0.00146047
4 *361:18 0.00254015
5 *1966:A *390:149 0
6 *1966:A *416:126 0
7 *361:18 *1887:CLK 1.91597e-05
8 *361:18 *1887:RESET_B 4.20673e-05
9 *361:18 *379:8 0.000307327
10 *361:18 *390:14 0.000119242
11 *361:18 *390:149 4.30907e-05
12 *361:18 *396:123 6.33103e-05
13 *361:18 *406:95 0
14 *361:18 *406:119 0
15 *361:18 *410:101 0
16 mstream_o[65] *361:18 1.16578e-05
17 *1764:D_N *1966:A 2.93678e-05
18 *1765:D_N *1966:A 0
19 *1767:D_N *1966:A 0
20 *1768:D_N *1966:A 0
21 *1769:D_N *1966:A 0
22 *1770:D_N *1966:A 3.97211e-05
23 *1771:D_N *1966:A 0
24 *1887:D *361:18 4.7101e-05
25 *1976:A *361:18 5.88334e-05
*RES
1 *1947:X *361:18 29.495 
2 *361:18 *1966:A 22.925 
3 *361:18 *1965:A 1.6 
*END

*D_NET *362 0.00469116
*CONN
*I *1952:A I *D sky130_fd_sc_hd__clkbuf_16
*I *1953:A I *D sky130_fd_sc_hd__clkbuf_16
*I *1948:X O *D sky130_fd_sc_hd__clkbuf_8
*CAP
1 *1952:A 0.000132895
2 *1953:A 0.000494365
3 *1948:X 0.00068668
4 *362:8 0.00131394
5 *1952:A *1774:A 5.85515e-05
6 *1952:A *396:141 2.92496e-05
7 *1953:A *396:141 0.000160658
8 *1953:A *412:55 1.7902e-05
9 *362:8 *1891:RESET_B 4.20673e-05
10 *362:8 *396:141 4.66108e-05
11 *362:8 *412:53 8.23457e-05
12 mstream_o[69] *362:8 8.8266e-05
13 *1772:D_N *1953:A 0.000319174
14 *1776:D_N *1952:A 0.000169361
15 *1891:D *362:8 0.000212218
16 *1893:D *1952:A 2.49909e-05
17 *237:14 *1952:A 0.000299136
18 *237:14 *1953:A 0.000512752
*RES
1 *1948:X *362:8 15.09 
2 *362:8 *1953:A 14.16 
3 *362:8 *1952:A 7.725 
*END

*D_NET *363 0.00269089
*CONN
*I *1955:A I *D sky130_fd_sc_hd__clkbuf_16
*I *1954:A I *D sky130_fd_sc_hd__clkbuf_16
*I *1949:X O *D sky130_fd_sc_hd__clkbuf_8
*CAP
1 *1955:A 4.70655e-05
2 *1954:A 0
3 *1949:X 0.000848822
4 *363:16 0.000895888
5 *1955:A *368:8 2.97593e-05
6 *363:16 *1805:B 9.09788e-06
7 *363:16 *368:8 5.58206e-05
8 *363:16 *388:193 5.54551e-05
9 *363:16 *398:141 9.40875e-05
10 *363:16 *398:154 9.1436e-05
11 *363:16 *414:93 0.000198622
12 *363:16 *414:110 0.000105222
13 *363:16 *414:122 7.01303e-05
14 *363:16 *416:39 0
15 *1805:D_N *363:16 0.000155242
16 *237:16 *363:16 3.42414e-05
*RES
1 *1949:X *363:16 20.705 
2 *363:16 *1954:A 1.6 
3 *363:16 *1955:A 2.395 
*END

*D_NET *364 0.00356936
*CONN
*I *1956:A I *D sky130_fd_sc_hd__clkbuf_16
*I *1957:A I *D sky130_fd_sc_hd__clkbuf_16
*I *1950:X O *D sky130_fd_sc_hd__clkbuf_8
*CAP
1 *1956:A 0.000708691
2 *1957:A 0
3 *1950:X 0.000642239
4 *364:14 0.00135093
5 *1956:A *1926:CLK 1.34503e-05
6 *1956:A *1926:RESET_B 1.83756e-05
7 *1956:A *371:12 0.000235055
8 *364:14 *1917:CLK 0
9 *364:14 *408:157 0
10 mstream_o[101] *364:14 9.20021e-05
11 mstream_o[104] *1956:A 4.15293e-05
12 mstream_o[104] *364:14 0.000312459
13 *1926:D *1956:A 0.000154633
*RES
1 *1950:X *364:14 16.43 
2 *364:14 *1957:A 1.6 
3 *364:14 *1956:A 11.05 
*END

*D_NET *365 0.00540425
*CONN
*I *1831:CLK I *D sky130_fd_sc_hd__dfrtp_4
*I *1830:CLK I *D sky130_fd_sc_hd__dfrtp_4
*I *1824:CLK I *D sky130_fd_sc_hd__dfrtp_4
*I *1822:CLK I *D sky130_fd_sc_hd__dfrtp_4
*I *1826:CLK I *D sky130_fd_sc_hd__dfrtp_4
*I *1951:X O *D sky130_fd_sc_hd__clkbuf_16
*CAP
1 *1831:CLK 4.10486e-05
2 *1830:CLK 6.07002e-05
3 *1824:CLK 8.33148e-05
4 *1822:CLK 0.000191049
5 *1826:CLK 0
6 *1951:X 0.000424706
7 *365:49 0.000325791
8 *365:21 0.000373388
9 *365:19 0.000380299
10 *365:8 0.000481939
11 *1822:CLK *1823:CLK 0.00022921
12 *1824:CLK *1713:B 5.12969e-06
13 *1831:CLK *372:36 0.000128353
14 *1831:CLK *373:10 0.000136884
15 *365:21 *1823:CLK 0.000127373
16 *365:21 *372:25 0.000209179
17 *365:49 *1828:CLK 0.000140912
18 *365:49 *372:25 0.000149759
19 *365:49 *372:36 0.000559599
20 *365:49 *373:10 0.000201335
21 *1822:D *1822:CLK 6.48571e-05
22 *1824:D *1822:CLK 0.000386587
23 *1825:D *1824:CLK 2.90601e-05
24 *1826:D *365:21 8.53113e-06
25 *1826:D *365:49 9.14049e-05
26 *1827:D *1822:CLK 3.76596e-05
27 *1827:D *1824:CLK 2.17688e-05
28 *1827:D *365:21 0.000184845
29 *1827:D *365:49 1.26626e-05
30 *1830:D *365:49 6.0016e-05
31 *1833:D *1830:CLK 9.26463e-05
32 *1958:A *365:8 6.34721e-05
33 *357:20 *365:8 8.12896e-06
34 *357:20 *365:19 9.26463e-05
*RES
1 *1951:X *365:8 7.495 
2 *365:8 *1826:CLK 1.6 
3 *365:8 *365:19 3.155 
4 *365:19 *365:21 3.93 
5 *365:21 *1822:CLK 9.195 
6 *365:21 *1824:CLK 5.115 
7 *365:19 *365:49 8.265 
8 *365:49 *1830:CLK 4.755 
9 *365:49 *1831:CLK 5.235 
*END

*D_NET *366 0.00695321
*CONN
*I *1904:CLK I *D sky130_fd_sc_hd__dfrtp_4
*I *1902:CLK I *D sky130_fd_sc_hd__dfrtp_4
*I *1900:CLK I *D sky130_fd_sc_hd__dfrtp_4
*I *1899:CLK I *D sky130_fd_sc_hd__dfrtp_4
*I *1898:CLK I *D sky130_fd_sc_hd__dfrtp_4
*I *1894:CLK I *D sky130_fd_sc_hd__dfrtp_4
*I *1952:X O *D sky130_fd_sc_hd__clkbuf_16
*CAP
1 *1904:CLK 0.00019321
2 *1902:CLK 6.67099e-05
3 *1900:CLK 4.09868e-05
4 *1899:CLK 0
5 *1898:CLK 7.33289e-05
6 *1894:CLK 7.8348e-05
7 *1952:X 0.000732874
8 *366:58 0.000440223
9 *366:45 0.000281426
10 *366:36 0.000103425
11 *366:23 0.00032285
12 *366:10 0.00101745
13 *1900:CLK *1784:C 1.20052e-05
14 *1900:CLK *396:202 8.35068e-05
15 *1904:CLK *1788:A 0
16 *1904:CLK *1905:CLK 0.000198981
17 *1904:CLK *367:105 0.000162332
18 *1904:CLK *416:82 0.000229904
19 *366:10 *367:51 0.000160651
20 *366:10 *396:202 4.6657e-05
21 *366:23 *367:51 0.000152134
22 *366:23 *367:62 0.000226855
23 *366:23 *367:77 0.000139245
24 *366:23 *367:88 0.000206824
25 *366:23 *396:202 0.000244869
26 *366:36 *367:88 0.000130721
27 *366:36 *396:202 7.63282e-05
28 *366:45 *367:88 0.000222061
29 *366:45 *396:202 0.000130065
30 *366:58 *367:88 0.000130707
31 *366:58 *367:105 0.000235379
32 *366:58 *396:202 1.52184e-05
33 *366:58 *413:23 0
34 *366:58 *416:124 0
35 *1892:D *1894:CLK 2.17688e-05
36 *1892:D *366:10 7.06865e-05
37 *1893:D *366:10 0.000240059
38 *1894:D *366:10 8.53113e-06
39 *1894:D *366:23 0.000268987
40 *1898:D *1898:CLK 4.60061e-05
41 *1900:D *1900:CLK 4.60061e-05
42 *1902:D *1902:CLK 4.98756e-05
43 *1904:D *1904:CLK 4.60061e-05
*RES
1 *1952:X *366:10 13.185 
2 *366:10 *1894:CLK 4.755 
3 *366:10 *366:23 8.265 
4 *366:23 *1898:CLK 4.755 
5 *366:23 *366:36 1.635 
6 *366:36 *1899:CLK 3.6 
7 *366:36 *366:45 2.655 
8 *366:45 *1900:CLK 4.755 
9 *366:45 *366:58 4.185 
10 *366:58 *1902:CLK 4.755 
11 *366:58 *1904:CLK 8.94 
*END

*D_NET *367 0.0080598
*CONN
*I *1905:CLK I *D sky130_fd_sc_hd__dfrtp_4
*I *1903:CLK I *D sky130_fd_sc_hd__dfrtp_4
*I *1901:CLK I *D sky130_fd_sc_hd__dfrtp_4
*I *1897:CLK I *D sky130_fd_sc_hd__dfrtp_4
*I *1896:CLK I *D sky130_fd_sc_hd__dfrtp_4
*I *1895:CLK I *D sky130_fd_sc_hd__dfrtp_4
*I *1892:CLK I *D sky130_fd_sc_hd__dfrtp_4
*I *1889:CLK I *D sky130_fd_sc_hd__dfrtp_4
*I *1887:CLK I *D sky130_fd_sc_hd__dfrtp_4
*I *1953:X O *D sky130_fd_sc_hd__clkbuf_16
*CAP
1 *1905:CLK 0.00016998
2 *1903:CLK 0
3 *1901:CLK 0
4 *1897:CLK 4.64981e-05
5 *1896:CLK 5.95747e-05
6 *1895:CLK 2.89741e-05
7 *1892:CLK 6.46216e-05
8 *1889:CLK 5.11877e-05
9 *1887:CLK 0.000198866
10 *1953:X 8.44247e-05
11 *367:105 0.00043402
12 *367:88 0.000640433
13 *367:77 0.000500156
14 *367:62 0.000274061
15 *367:51 0.000424607
16 *367:36 0.000646935
17 *367:25 0.000451854
18 *367:10 0.000360055
19 *1887:CLK *1886:CLK 2.92496e-05
20 *1887:CLK *379:8 4.66108e-05
21 *1887:CLK *379:25 0.000239723
22 *1887:CLK *412:59 0
23 *1892:CLK *396:202 2.68464e-05
24 *1896:CLK *1778:C 1.20052e-05
25 *1905:CLK *416:76 2.97561e-05
26 *1905:CLK *416:82 4.76659e-05
27 *367:10 *1888:CLK 6.5415e-05
28 *367:25 *379:25 8.53113e-06
29 *367:25 *379:40 0.000129047
30 *367:36 *1774:A 0
31 *367:36 *1893:CLK 0.000239737
32 *367:36 *379:40 0.000206817
33 *367:36 *379:53 0.000130721
34 *367:51 *1893:CLK 0.000120186
35 *367:62 *1776:C 0
36 *367:77 *413:33 0
37 *367:88 *413:31 0
38 *1776:D_N *367:36 0
39 *1776:D_N *367:51 0
40 *1887:D *1887:CLK 8.80267e-05
41 *1889:D *1889:CLK 4.41506e-05
42 *1892:D *367:51 3.13459e-05
43 *1895:D *1895:CLK 2.49909e-05
44 *1896:D *1896:CLK 2.68464e-05
45 *1897:D *1897:CLK 4.66826e-05
46 *1902:D *367:105 4.41506e-05
47 *1904:CLK *1905:CLK 0.000198981
48 *1904:CLK *367:105 0.000162332
49 *361:18 *1887:CLK 1.91597e-05
50 *366:10 *367:51 0.000160651
51 *366:23 *367:51 0.000152134
52 *366:23 *367:62 0.000226855
53 *366:23 *367:77 0.000139245
54 *366:23 *367:88 0.000206824
55 *366:36 *367:88 0.000130721
56 *366:45 *367:88 0.000222061
57 *366:58 *367:88 0.000130707
58 *366:58 *367:105 0.000235379
*RES
1 *1953:X *367:10 4.755 
2 *367:10 *1887:CLK 7.92 
3 *367:10 *367:25 1.635 
4 *367:25 *1889:CLK 4.395 
5 *367:25 *367:36 6.735 
6 *367:36 *1892:CLK 4.77 
7 *367:36 *367:51 5.715 
8 *367:51 *1895:CLK 4.05 
9 *367:51 *367:62 2.655 
10 *367:62 *1896:CLK 4.77 
11 *367:62 *367:77 1.635 
12 *367:77 *1897:CLK 4.395 
13 *367:77 *367:88 8.01 
14 *367:88 *1901:CLK 3.6 
15 *367:88 *367:105 9.34 
16 *367:105 *1903:CLK 3.6 
17 *367:105 *1905:CLK 7.53 
*END

*D_NET *368 0.00692114
*CONN
*I *1919:CLK I *D sky130_fd_sc_hd__dfrtp_4
*I *1918:CLK I *D sky130_fd_sc_hd__dfrtp_4
*I *1914:CLK I *D sky130_fd_sc_hd__dfrtp_4
*I *1913:CLK I *D sky130_fd_sc_hd__dfrtp_4
*I *1910:CLK I *D sky130_fd_sc_hd__dfrtp_4
*I *1907:CLK I *D sky130_fd_sc_hd__dfrtp_4
*I *1954:X O *D sky130_fd_sc_hd__clkbuf_16
*CAP
1 *1919:CLK 0.000101008
2 *1918:CLK 6.21635e-05
3 *1914:CLK 0.000205013
4 *1913:CLK 3.10809e-05
5 *1910:CLK 0.000142139
6 *1907:CLK 0.000230409
7 *1954:X 0.000763138
8 *368:58 0.000229439
9 *368:14 0.000651018
10 *368:12 0.000378177
11 *368:10 0.000605951
12 *368:8 0.00116172
13 *1907:CLK *416:74 0.000471287
14 *1914:CLK *388:81 3.00454e-05
15 *1919:CLK *369:95 9.6113e-05
16 *368:8 *369:8 9.18292e-06
17 *368:10 *369:10 0.000100536
18 *368:10 *369:12 7.63204e-05
19 *368:10 *369:14 2.42236e-05
20 *368:10 *369:95 6.89704e-05
21 *368:10 *416:74 0.000172852
22 *368:12 *416:74 0.000132089
23 *368:14 *416:74 0.000575814
24 *368:58 *369:95 5.92191e-05
25 *1910:D *1910:CLK 3.05027e-05
26 *1913:D *1913:CLK 1.16578e-05
27 *1913:D *1914:CLK 0.000135317
28 *1913:D *368:10 5.23362e-05
29 *1913:D *368:12 7.23533e-05
30 *1914:D *1914:CLK 8.64421e-05
31 *1918:D *1918:CLK 6.90438e-05
32 *1955:A *368:8 2.97593e-05
33 *363:16 *368:8 5.58206e-05
*RES
1 *1954:X *368:8 11.64 
2 *368:8 *368:10 7.5 
3 *368:10 *368:12 1.635 
4 *368:12 *368:14 6.735 
5 *368:14 *1907:CLK 9.06 
6 *368:14 *1910:CLK 5.355 
7 *368:12 *1913:CLK 4.05 
8 *368:10 *1914:CLK 7.095 
9 *368:8 *368:58 1.38 
10 *368:58 *1918:CLK 4.74 
11 *368:58 *1919:CLK 5.745 
*END

*D_NET *369 0.0072625
*CONN
*I *1921:CLK I *D sky130_fd_sc_hd__dfrtp_4
*I *1920:CLK I *D sky130_fd_sc_hd__dfrtp_4
*I *1916:CLK I *D sky130_fd_sc_hd__dfrtp_4
*I *1915:CLK I *D sky130_fd_sc_hd__dfrtp_4
*I *1912:CLK I *D sky130_fd_sc_hd__dfrtp_4
*I *1911:CLK I *D sky130_fd_sc_hd__dfrtp_4
*I *1909:CLK I *D sky130_fd_sc_hd__dfrtp_4
*I *1908:CLK I *D sky130_fd_sc_hd__dfrtp_4
*I *1906:CLK I *D sky130_fd_sc_hd__dfrtp_4
*I *1955:X O *D sky130_fd_sc_hd__clkbuf_16
*CAP
1 *1921:CLK 0.000216226
2 *1920:CLK 6.26753e-05
3 *1916:CLK 6.21873e-05
4 *1915:CLK 3.35189e-05
5 *1912:CLK 6.21873e-05
6 *1911:CLK 4.45078e-05
7 *1909:CLK 6.23231e-05
8 *1908:CLK 6.21019e-05
9 *1906:CLK 0.000205473
10 *1955:X 0.000304654
11 *369:95 0.000623805
12 *369:20 0.000399241
13 *369:18 0.000385733
14 *369:16 0.000311997
15 *369:14 0.000449795
16 *369:12 0.00042843
17 *369:10 0.000266231
18 *369:8 0.000770551
19 *1906:CLK *412:23 0
20 *1906:CLK *416:74 0.000126292
21 *1906:CLK *416:76 0.000146379
22 *1906:CLK *416:240 1.00889e-05
23 *1915:CLK *416:74 2.49909e-05
24 *1920:CLK *1803:A 0
25 *369:10 *388:102 0
26 *369:14 *414:21 0
27 *369:14 *416:74 0.000535818
28 *369:16 *416:74 0.000141606
29 *369:18 *416:74 0.000356583
30 *369:20 *416:74 0.00022921
31 *369:95 *388:134 0
32 *1792:D_N *369:20 0
33 *1908:D *1908:CLK 2.68464e-05
34 *1909:D *1909:CLK 0.000119762
35 *1911:D *1911:CLK 8.23457e-05
36 *1912:D *1912:CLK 2.68464e-05
37 *1915:D *1915:CLK 8.49205e-05
38 *1916:D *1916:CLK 2.68464e-05
39 *1919:CLK *369:95 9.6113e-05
40 *1920:D *1920:CLK 2.68464e-05
41 *1921:D *1921:CLK 8.49205e-05
42 *1949:A *1921:CLK 2.59981e-05
43 *237:16 *1906:CLK 0
44 *237:16 *369:20 0
45 *368:8 *369:8 9.18292e-06
46 *368:10 *369:10 0.000100536
47 *368:10 *369:12 7.63204e-05
48 *368:10 *369:14 2.42236e-05
49 *368:10 *369:95 6.89704e-05
50 *368:58 *369:95 5.92191e-05
*RES
1 *1955:X *369:8 6.81 
2 *369:8 *369:10 2.145 
3 *369:10 *369:12 1.635 
4 *369:12 *369:14 6.735 
5 *369:14 *369:16 1.635 
6 *369:16 *369:18 4.185 
7 *369:18 *369:20 2.655 
8 *369:20 *1906:CLK 7.575 
9 *369:20 *1908:CLK 4.665 
10 *369:18 *1909:CLK 4.74 
11 *369:16 *1911:CLK 4.395 
12 *369:14 *1912:CLK 4.665 
13 *369:12 *1915:CLK 4.395 
14 *369:10 *1916:CLK 4.665 
15 *369:8 *369:95 6.225 
16 *369:95 *1920:CLK 4.665 
17 *369:95 *1921:CLK 7.05 
*END

*D_NET *370 0.00660065
*CONN
*I *1935:CLK I *D sky130_fd_sc_hd__dfrtp_4
*I *1934:CLK I *D sky130_fd_sc_hd__dfrtp_4
*I *1933:CLK I *D sky130_fd_sc_hd__dfrtp_4
*I *1932:CLK I *D sky130_fd_sc_hd__dfrtp_4
*I *1936:CLK I *D sky130_fd_sc_hd__dfrtp_4
*I *1931:CLK I *D sky130_fd_sc_hd__dfrtp_4
*I *1925:CLK I *D sky130_fd_sc_hd__dfrtp_4
*I *1924:CLK I *D sky130_fd_sc_hd__dfrtp_4
*I *1923:CLK I *D sky130_fd_sc_hd__dfrtp_4
*I *1922:CLK I *D sky130_fd_sc_hd__dfrtp_4
*I *1956:X O *D sky130_fd_sc_hd__clkbuf_16
*CAP
1 *1935:CLK 0.000130727
2 *1934:CLK 0
3 *1933:CLK 6.13987e-05
4 *1932:CLK 3.93314e-05
5 *1936:CLK 6.44758e-05
6 *1931:CLK 1.91143e-05
7 *1925:CLK 5.43782e-05
8 *1924:CLK 6.45612e-05
9 *1923:CLK 3.86664e-05
10 *1922:CLK 0.000189198
11 *1956:X 0.000437938
12 *370:116 0.00023196
13 *370:101 0.000347038
14 *370:90 0.000330258
15 *370:75 0.00035915
16 *370:64 0.000825513
17 *370:16 0.000426481
18 *370:14 0.000365002
19 *370:12 0.000248118
20 *370:10 0.0011481
21 *1933:CLK *1816:B 5.12969e-06
22 *1935:CLK *1820:C 0
23 *1936:CLK *1819:A 0
24 *370:10 *1926:CLK 4.77719e-05
25 *370:12 *399:55 0
26 *370:14 *456:DIODE 2.11702e-05
27 *370:14 *399:36 0
28 *370:16 *456:DIODE 1.0555e-05
29 *370:16 *1805:C 0
30 *370:64 *371:23 6.86906e-05
31 *370:64 *371:32 5.30057e-05
32 *370:64 *371:45 3.56184e-05
33 *370:64 *399:107 0
34 *370:75 *399:126 0
35 *1809:D_N *370:64 0
36 *1816:D_N *370:90 0
37 *1816:D_N *370:101 0
38 *1821:A *1931:CLK 8.65961e-05
39 *1922:D *1922:CLK 2.937e-05
40 *1923:D *1923:CLK 5.55968e-05
41 *1924:D *1924:CLK 2.68464e-05
42 *1925:D *1925:CLK 7.35813e-05
43 *1926:D *370:10 0.000107176
44 *1928:D *370:64 0.000362965
45 *1931:D *1931:CLK 3.45679e-05
46 *1932:D *1932:CLK 5.05521e-05
47 *1933:D *1933:CLK 2.68464e-05
48 *1934:D *1933:CLK 3.50152e-06
49 *1935:D *1935:CLK 7.23602e-05
50 *1936:D *1936:CLK 2.68464e-05
51 *1937:D *1935:CLK 2.04923e-05
52 *237:16 *1935:CLK 0
53 *237:16 *370:64 0
54 *237:16 *370:101 0
55 *237:16 *370:116 0
*RES
1 *1956:X *370:10 9.585 
2 *370:10 *370:12 1.38 
3 *370:12 *370:14 1.635 
4 *370:14 *370:16 2.655 
5 *370:16 *1922:CLK 6.405 
6 *370:16 *1923:CLK 4.395 
7 *370:14 *1924:CLK 4.77 
8 *370:12 *1925:CLK 4.74 
9 *370:10 *370:64 11.07 
10 *370:64 *1931:CLK 4.395 
11 *370:64 *370:75 2.655 
12 *370:75 *1936:CLK 4.77 
13 *370:75 *370:90 1.635 
14 *370:90 *1932:CLK 4.395 
15 *370:90 *370:101 2.655 
16 *370:101 *1933:CLK 4.77 
17 *370:101 *370:116 1.635 
18 *370:116 *1934:CLK 3.6 
19 *370:116 *1935:CLK 6.045 
*END

*D_NET *371 0.00931455
*CONN
*I *1917:CLK I *D sky130_fd_sc_hd__dfrtp_4
*I *1937:CLK I *D sky130_fd_sc_hd__dfrtp_4
*I *1930:CLK I *D sky130_fd_sc_hd__dfrtp_4
*I *1929:CLK I *D sky130_fd_sc_hd__dfrtp_4
*I *1928:CLK I *D sky130_fd_sc_hd__dfrtp_4
*I *1927:CLK I *D sky130_fd_sc_hd__dfrtp_4
*I *1926:CLK I *D sky130_fd_sc_hd__dfrtp_4
*I *1957:X O *D sky130_fd_sc_hd__clkbuf_16
*CAP
1 *1917:CLK 0.000762946
2 *1937:CLK 0.00117713
3 *1930:CLK 0.000175295
4 *1929:CLK 0
5 *1928:CLK 0.000169007
6 *1927:CLK 0
7 *1926:CLK 6.3622e-05
8 *1957:X 0.000248104
9 *371:56 0.00142551
10 *371:45 0.000191132
11 *371:32 0.000363735
12 *371:23 0.000188758
13 *371:12 0.000597079
14 *371:6 0.00143243
15 *1917:CLK *1919:RESET_B 0
16 *1917:CLK *408:135 0.000200852
17 *1917:CLK *408:157 0.000491319
18 *1917:CLK *410:141 0
19 *1928:CLK *399:74 1.20052e-05
20 *1937:CLK *1930:RESET_B 4.82863e-05
21 *1937:CLK *1935:RESET_B 0
22 *1937:CLK *408:157 0.00041407
23 *1937:CLK *409:104 0
24 *1937:CLK *409:116 0
25 *1937:CLK *409:128 0
26 *1937:CLK *409:140 0
27 *371:12 *1926:RESET_B 5.78206e-05
28 mstream_o[101] *1917:CLK 0
29 mstream_o[104] *371:6 0.000293177
30 mstream_o[104] *371:12 6.90438e-05
31 mstream_o[108] *1937:CLK 2.65814e-06
32 mstream_o[112] *1937:CLK 2.11084e-05
33 mstream_o[114] *1937:CLK 0.000173867
34 mstream_o[96] *1917:CLK 6.15576e-06
35 *1821:B *1937:CLK 6.23541e-06
36 *1926:D *1926:CLK 7.62881e-05
37 *1928:D *1928:CLK 1.7386e-05
38 *1928:D *1930:CLK 2.17688e-05
39 *1928:D *371:45 7.63282e-05
40 *1928:D *371:56 7.34286e-05
41 *1930:D *1930:CLK 4.40325e-06
42 *1956:A *1926:CLK 1.34503e-05
43 *1956:A *371:12 0.000235055
44 *356:158 *1917:CLK 0
45 *364:14 *1917:CLK 0
46 *370:10 *1926:CLK 4.77719e-05
47 *370:64 *371:23 6.86906e-05
48 *370:64 *371:32 5.30057e-05
49 *370:64 *371:45 3.56184e-05
*RES
1 *1957:X *371:6 6.19 
2 *371:6 *371:12 7.815 
3 *371:12 *1926:CLK 3.085 
4 *371:12 *371:23 4.145 
5 *371:23 *1927:CLK 3.6 
6 *371:23 *371:32 1.635 
7 *371:32 *1928:CLK 5.7 
8 *371:32 *371:45 2.655 
9 *371:45 *1929:CLK 3.6 
10 *371:45 *371:56 3.635 
11 *371:56 *1930:CLK 3.7 
12 *371:56 *1937:CLK 23.885 
13 *371:6 *1917:CLK 21.515 
*END

*D_NET *372 0.00798557
*CONN
*I *1825:CLK I *D sky130_fd_sc_hd__dfrtp_4
*I *1837:CLK I *D sky130_fd_sc_hd__dfrtp_4
*I *1835:CLK I *D sky130_fd_sc_hd__dfrtp_4
*I *1834:CLK I *D sky130_fd_sc_hd__dfrtp_4
*I *1833:CLK I *D sky130_fd_sc_hd__dfrtp_4
*I *1827:CLK I *D sky130_fd_sc_hd__dfrtp_4
*I *1823:CLK I *D sky130_fd_sc_hd__dfrtp_4
*I *1958:X O *D sky130_fd_sc_hd__clkbuf_16
*CAP
1 *1825:CLK 4.76651e-05
2 *1837:CLK 0.000250599
3 *1835:CLK 3.45886e-05
4 *1834:CLK 6.14418e-05
5 *1833:CLK 9.54152e-05
6 *1827:CLK 7.64341e-05
7 *1823:CLK 0.000249734
8 *1958:X 0.00059719
9 *372:60 0.000371234
10 *372:47 0.000216962
11 *372:36 0.000760875
12 *372:25 0.000890485
13 *372:12 0.000467799
14 *372:10 0.000644855
15 *1823:CLK *381:90 0
16 *1837:CLK *374:23 0.000227536
17 *1837:CLK *374:36 0.000131408
18 *1837:CLK *382:18 0
19 *372:25 *381:90 0
20 *372:36 *1832:CLK 0.000137571
21 *372:36 *373:10 0.000120093
22 *372:36 *381:90 0
23 *372:47 *1832:CLK 0.000141606
24 *372:60 *1832:CLK 0.000183043
25 *372:60 *374:23 4.14369e-05
26 *372:60 *382:18 0
27 *1822:CLK *1823:CLK 0.00022921
28 *1823:D *1823:CLK 2.75145e-05
29 *1825:D *1823:CLK 6.88421e-05
30 *1825:D *1825:CLK 2.67275e-05
31 *1825:D *372:10 4.66108e-05
32 *1826:D *1827:CLK 2.76356e-05
33 *1827:D *1827:CLK 5.83121e-06
34 *1831:CLK *372:36 0.000128353
35 *1835:D *1834:CLK 5.83121e-06
36 *1835:D *1835:CLK 0.000118081
37 *1835:D *372:47 7.9642e-06
38 *1835:D *372:60 0.000186803
39 *1836:D *1834:CLK 2.49909e-05
40 *1837:D *1837:CLK 0.000119762
41 *1958:A *372:10 4.94457e-05
42 *358:6 *1835:CLK 0.000118081
43 *365:21 *1823:CLK 0.000127373
44 *365:21 *372:25 0.000209179
45 *365:49 *372:25 0.000149759
46 *365:49 *372:36 0.000559599
*RES
1 *1958:X *372:10 9.925 
2 *372:10 *372:12 2 
3 *372:12 *1823:CLK 8.235 
4 *372:12 *372:25 4.185 
5 *372:25 *1827:CLK 4.74 
6 *372:25 *372:36 12.09 
7 *372:36 *1833:CLK 4.74 
8 *372:36 *372:47 1.635 
9 *372:47 *1834:CLK 4.665 
10 *372:47 *372:60 2.655 
11 *372:60 *1835:CLK 4.74 
12 *372:60 *1837:CLK 8.925 
13 *372:10 *1825:CLK 2.395 
*END

*D_NET *373 0.00954671
*CONN
*I *1850:CLK I *D sky130_fd_sc_hd__dfrtp_4
*I *1848:CLK I *D sky130_fd_sc_hd__dfrtp_4
*I *1845:CLK I *D sky130_fd_sc_hd__dfrtp_4
*I *1841:CLK I *D sky130_fd_sc_hd__dfrtp_4
*I *1840:CLK I *D sky130_fd_sc_hd__dfrtp_4
*I *1839:CLK I *D sky130_fd_sc_hd__dfrtp_4
*I *1829:CLK I *D sky130_fd_sc_hd__dfrtp_4
*I *1828:CLK I *D sky130_fd_sc_hd__dfrtp_4
*I *1959:X O *D sky130_fd_sc_hd__clkbuf_16
*CAP
1 *1850:CLK 0.000242904
2 *1848:CLK 5.95747e-05
3 *1845:CLK 0
4 *1841:CLK 6.81934e-05
5 *1840:CLK 0.000135018
6 *1839:CLK 0
7 *1829:CLK 0
8 *1828:CLK 0.000144135
9 *1959:X 0.000235158
10 *373:84 0.000744827
11 *373:71 0.000823876
12 *373:56 0.00054252
13 *373:43 0.000295225
14 *373:34 0.000325319
15 *373:10 0.000495301
16 *373:8 0.000844234
17 *1828:CLK *1716:C 1.20052e-05
18 *1848:CLK *1734:C 1.20052e-05
19 *1850:CLK *1851:CLK 7.75697e-05
20 *1850:CLK *374:110 3.59997e-05
21 *1850:CLK *381:18 0
22 *373:8 *1836:CLK 2.17688e-05
23 *373:10 *1832:CLK 0.000446541
24 *373:10 *374:23 0.000179008
25 *373:34 *374:23 8.99646e-05
26 *373:34 *374:36 0.000358951
27 *373:34 *374:49 0.000139238
28 *373:43 *374:49 0.000132089
29 *373:56 *374:49 0.00017688
30 *373:71 *374:49 0.000263511
31 *373:71 *374:62 0.000139252
32 *373:71 *374:73 0.000231564
33 *373:71 *374:88 0.000139252
34 *373:84 *374:88 8.18796e-05
35 *373:84 *374:101 8.90145e-05
36 *373:84 *374:110 9.70873e-05
37 *1828:D *1828:CLK 6.76978e-05
38 *1830:D *1828:CLK 0.000140912
39 *1830:D *373:10 0.000164679
40 *1831:CLK *373:10 0.000136884
41 *1833:D *373:10 0.000151318
42 *1834:D *373:10 0.000294421
43 *1836:D *373:8 5.83121e-06
44 *1836:D *373:10 0.000266618
45 *1836:D *373:34 5.23362e-05
46 *1839:D *373:34 3.68682e-05
47 *1840:D *1840:CLK 3.50981e-05
48 *1841:D *1841:CLK 2.49909e-05
49 *1848:D *1848:CLK 2.68464e-05
50 *365:49 *1828:CLK 0.000140912
51 *365:49 *373:10 0.000201335
52 *372:36 *373:10 0.000120093
*RES
1 *1959:X *373:8 6.12 
2 *373:8 *373:10 13.62 
3 *373:10 *1828:CLK 7.095 
4 *373:10 *1829:CLK 3.6 
5 *373:8 *373:34 6.735 
6 *373:34 *1839:CLK 3.6 
7 *373:34 *373:43 1.635 
8 *373:43 *1840:CLK 5.355 
9 *373:43 *373:56 2.145 
10 *373:56 *1841:CLK 4.77 
11 *373:56 *373:71 8.775 
12 *373:71 *1845:CLK 3.6 
13 *373:71 *373:84 7.89 
14 *373:84 *1848:CLK 4.77 
15 *373:84 *1850:CLK 7.575 
*END

*D_NET *374 0.010677
*CONN
*I *1851:CLK I *D sky130_fd_sc_hd__dfrtp_4
*I *1849:CLK I *D sky130_fd_sc_hd__dfrtp_4
*I *1847:CLK I *D sky130_fd_sc_hd__dfrtp_4
*I *1846:CLK I *D sky130_fd_sc_hd__dfrtp_4
*I *1844:CLK I *D sky130_fd_sc_hd__dfrtp_4
*I *1843:CLK I *D sky130_fd_sc_hd__dfrtp_4
*I *1842:CLK I *D sky130_fd_sc_hd__dfrtp_4
*I *1838:CLK I *D sky130_fd_sc_hd__dfrtp_4
*I *1836:CLK I *D sky130_fd_sc_hd__dfrtp_4
*I *1832:CLK I *D sky130_fd_sc_hd__dfrtp_4
*I *1960:X O *D sky130_fd_sc_hd__clkbuf_16
*CAP
1 *1851:CLK 0.000210682
2 *1849:CLK 2.85385e-05
3 *1847:CLK 0
4 *1846:CLK 0.000165172
5 *1844:CLK 6.1663e-05
6 *1843:CLK 0
7 *1842:CLK 6.10093e-05
8 *1838:CLK 3.30496e-05
9 *1836:CLK 7.8348e-05
10 *1832:CLK 0.000157566
11 *1960:X 0.00068755
12 *374:110 0.000365258
13 *374:101 0.000249277
14 *374:88 0.000491965
15 *374:73 0.000377142
16 *374:62 0.000182197
17 *374:49 0.000535764
18 *374:36 0.000596092
19 *374:23 0.000311958
20 *374:8 0.000920165
21 *1832:CLK *1720:C 8.50369e-06
22 *1838:CLK *1725:C 8.50369e-06
23 *1842:CLK *1728:C 8.50369e-06
24 *1844:CLK *1730:C 1.20052e-05
25 *1849:CLK *1968:A 0.000123285
26 *1851:CLK *390:37 0.000398941
27 *1851:CLK *390:43 8.53113e-06
28 *374:36 *382:18 0
29 *374:49 *382:18 0
30 *374:110 *390:43 0.000271327
31 *1832:D *1832:CLK 4.85381e-05
32 *1834:D *1832:CLK 9.26463e-05
33 *1835:D *374:8 8.23457e-05
34 *1837:CLK *374:23 0.000227536
35 *1837:CLK *374:36 0.000131408
36 *1838:D *1838:CLK 4.98756e-05
37 *1839:D *1838:CLK 9.52155e-05
38 *1842:D *1842:CLK 5.90151e-05
39 *1844:D *1844:CLK 4.98756e-05
40 *1844:D *374:88 1.91597e-05
41 *1846:D *1846:CLK 3.81051e-05
42 *1849:D *1849:CLK 5.05437e-05
43 *1850:CLK *1851:CLK 7.75697e-05
44 *1850:CLK *374:110 3.59997e-05
45 *1851:D *1851:CLK 7.35729e-05
46 *1959:A *374:8 1.83756e-05
47 *358:6 *374:8 8.453e-05
48 *372:36 *1832:CLK 0.000137571
49 *372:47 *1832:CLK 0.000141606
50 *372:60 *1832:CLK 0.000183043
51 *372:60 *374:23 4.14369e-05
52 *373:8 *1836:CLK 2.17688e-05
53 *373:10 *1832:CLK 0.000446541
54 *373:10 *374:23 0.000179008
55 *373:34 *374:23 8.99646e-05
56 *373:34 *374:36 0.000358951
57 *373:34 *374:49 0.000139238
58 *373:43 *374:49 0.000132089
59 *373:56 *374:49 0.00017688
60 *373:71 *374:49 0.000263511
61 *373:71 *374:62 0.000139252
62 *373:71 *374:73 0.000231564
63 *373:71 *374:88 0.000139252
64 *373:84 *374:88 8.18796e-05
65 *373:84 *374:101 8.90145e-05
66 *373:84 *374:110 9.70873e-05
*RES
1 *1960:X *374:8 11.295 
2 *374:8 *1832:CLK 9.96 
3 *374:8 *374:23 3.165 
4 *374:23 *1836:CLK 4.755 
5 *374:23 *374:36 4.185 
6 *374:36 *1838:CLK 4.755 
7 *374:36 *374:49 8.265 
8 *374:49 *1842:CLK 4.755 
9 *374:49 *374:62 1.635 
10 *374:62 *1843:CLK 3.6 
11 *374:62 *374:73 4.655 
12 *374:73 *1844:CLK 2.755 
13 *374:73 *374:88 5.96 
14 *374:88 *1846:CLK 5.7 
15 *374:88 *374:101 2.655 
16 *374:101 *1847:CLK 3.6 
17 *374:101 *374:110 3.93 
18 *374:110 *1849:CLK 4.755 
19 *374:110 *1851:CLK 9.435 
*END

*D_NET *375 0.00441767
*CONN
*I *1879:CLK I *D sky130_fd_sc_hd__dfrtp_4
*I *1873:CLK I *D sky130_fd_sc_hd__dfrtp_4
*I *1872:CLK I *D sky130_fd_sc_hd__dfrtp_4
*I *1871:CLK I *D sky130_fd_sc_hd__dfrtp_4
*I *1870:CLK I *D sky130_fd_sc_hd__dfrtp_4
*I *1961:X O *D sky130_fd_sc_hd__clkbuf_16
*CAP
1 *1879:CLK 0.000355135
2 *1873:CLK 0
3 *1872:CLK 0.000115448
4 *1871:CLK 0
5 *1870:CLK 0.00015029
6 *1961:X 0.000160904
7 *375:16 0.000211488
8 *375:14 0.000216135
9 *375:12 0.000107699
10 *375:10 0.000584248
11 *1870:CLK *1757:C 8.50369e-06
12 *1870:CLK *390:37 0.000140912
13 *1872:CLK *1759:C 8.50369e-06
14 *1879:CLK *377:49 3.98952e-05
15 *1879:CLK *377:60 5.4256e-05
16 *1879:CLK *377:73 6.8665e-05
17 *1879:CLK *390:16 4.43871e-06
18 *1879:CLK *390:20 0.000225068
19 *1879:CLK *390:33 0.000332049
20 *1879:CLK *390:35 9.54399e-05
21 *375:10 *1874:CLK 2.68464e-05
22 *375:12 *377:49 2.66939e-05
23 *375:12 *390:35 0.000233231
24 *375:14 *390:35 6.61904e-05
25 *375:14 *390:37 7.23533e-05
26 *375:16 *377:12 2.24905e-05
27 *375:16 *390:37 0.000233231
28 *1872:D *1870:CLK 0.000271877
29 *1872:D *375:16 0.000156842
30 *1873:D *1872:CLK 3.64998e-06
31 *1874:D *1872:CLK 0.00013147
32 *1874:D *375:12 0.000156842
33 *1874:D *375:14 0.000128346
34 *1874:D *375:16 8.53113e-06
*RES
1 *1961:X *375:10 5.79 
2 *375:10 *375:12 2.655 
3 *375:12 *375:14 1.635 
4 *375:14 *375:16 2.655 
5 *375:16 *1870:CLK 7.44 
6 *375:16 *1871:CLK 3.6 
7 *375:14 *1872:CLK 5.805 
8 *375:12 *1873:CLK 3.6 
9 *375:10 *1879:CLK 13.14 
*END

*D_NET *376 0.00879339
*CONN
*I *1869:CLK I *D sky130_fd_sc_hd__dfrtp_4
*I *1868:CLK I *D sky130_fd_sc_hd__dfrtp_4
*I *1867:CLK I *D sky130_fd_sc_hd__dfrtp_4
*I *1866:CLK I *D sky130_fd_sc_hd__dfrtp_4
*I *1863:CLK I *D sky130_fd_sc_hd__dfrtp_4
*I *1853:CLK I *D sky130_fd_sc_hd__dfrtp_4
*I *1857:CLK I *D sky130_fd_sc_hd__dfrtp_4
*I *1962:X O *D sky130_fd_sc_hd__clkbuf_16
*CAP
1 *1869:CLK 0.000117335
2 *1868:CLK 0.000170184
3 *1867:CLK 1.85694e-05
4 *1866:CLK 0.000128712
5 *1863:CLK 0
6 *1853:CLK 0.000855126
7 *1857:CLK 0
8 *1962:X 0.000272489
9 *376:71 0.000344743
10 *376:49 0.000191732
11 *376:43 0.000278335
12 *376:14 0.00112396
13 *376:10 0.000301917
14 *376:8 0.000482232
15 *1853:CLK *1857:RESET_B 4.82369e-05
16 *1853:CLK *404:32 0
17 *1853:CLK *404:44 0
18 *1853:CLK *404:56 0
19 *1853:CLK *404:68 0
20 *1853:CLK *404:80 0
21 *1866:CLK *1753:C 4.84928e-05
22 *1866:CLK *377:12 0.000134249
23 *1869:CLK *377:12 1.52776e-05
24 *1869:CLK *390:37 0.000185405
25 *376:10 *390:37 0.000141592
26 *376:14 *378:18 2.37234e-05
27 *376:14 *378:20 2.75538e-05
28 *376:14 *378:22 1.43805e-05
29 *376:14 *378:35 1.52491e-05
30 *376:14 *390:37 0.00105723
31 *376:43 *1864:CLK 2.39642e-05
32 *376:43 *377:12 8.98743e-05
33 *376:43 *390:37 0.000545256
34 *376:71 *390:37 0.000183043
35 *1857:D *1853:CLK 7.15651e-05
36 *1858:D *376:14 0.000166346
37 *1860:D *376:14 0.000296088
38 *1863:D *376:14 0.000145326
39 *1864:D *376:10 0.000132089
40 *1864:D *376:14 0.000139252
41 *1864:D *376:43 4.54719e-05
42 *1867:D *1866:CLK 6.71882e-05
43 *1867:D *376:49 2.49909e-05
44 *1868:D *1869:CLK 4.54719e-05
45 *1868:D *376:43 9.54469e-05
46 *1868:D *376:71 0.00017354
47 *1870:D *1868:CLK 3.51081e-05
48 *1870:D *1869:CLK 9.30787e-05
49 *2:13 *1853:CLK 0.000392885
50 *359:8 *1869:CLK 2.75229e-05
51 *360:12 *1868:CLK 3.1562e-06
*RES
1 *1962:X *376:8 6.465 
2 *376:8 *376:10 1.635 
3 *376:10 *376:14 14.09 
4 *376:14 *1857:CLK 1.6 
5 *376:14 *1853:CLK 21.32 
6 *376:10 *1863:CLK 3.6 
7 *376:8 *376:43 6.225 
8 *376:43 *376:49 2.81 
9 *376:49 *1866:CLK 8.375 
10 *376:49 *1867:CLK 1.96 
11 *376:43 *376:71 2.145 
12 *376:71 *1868:CLK 5.7 
13 *376:71 *1869:CLK 6.915 
*END

*D_NET *377 0.00568019
*CONN
*I *1878:CLK I *D sky130_fd_sc_hd__dfrtp_4
*I *1877:CLK I *D sky130_fd_sc_hd__dfrtp_4
*I *1876:CLK I *D sky130_fd_sc_hd__dfrtp_4
*I *1875:CLK I *D sky130_fd_sc_hd__dfrtp_4
*I *1874:CLK I *D sky130_fd_sc_hd__dfrtp_4
*I *1865:CLK I *D sky130_fd_sc_hd__dfrtp_4
*I *1864:CLK I *D sky130_fd_sc_hd__dfrtp_4
*I *1963:X O *D sky130_fd_sc_hd__clkbuf_16
*CAP
1 *1878:CLK 0.000121412
2 *1877:CLK 0
3 *1876:CLK 6.06151e-05
4 *1875:CLK 9.71884e-06
5 *1874:CLK 6.21019e-05
6 *1865:CLK 2.11983e-05
7 *1864:CLK 0.000156287
8 *1963:X 0.000256934
9 *377:73 0.000257407
10 *377:60 0.000286184
11 *377:49 0.000254104
12 *377:36 0.000311525
13 *377:12 0.000948203
14 *377:10 0.00112226
15 *1875:CLK *1971:A 4.82919e-05
16 *1878:CLK *384:20 0
17 *1878:CLK *390:20 0.000143266
18 *377:12 *384:34 0
19 *377:12 *385:29 0
20 *377:12 *385:31 0
21 *377:12 *385:37 0
22 *377:12 *390:37 0
23 *377:73 *384:20 0
24 *377:73 *384:34 0
25 *377:73 *390:20 5.16418e-05
26 *1865:D *1865:CLK 4.82919e-05
27 *1866:CLK *377:12 0.000134249
28 *1868:D *377:12 0.000173207
29 *1869:CLK *377:12 1.52776e-05
30 *1870:D *377:12 0.000173191
31 *1872:D *377:12 0.000165068
32 *1873:D *377:10 4.66108e-05
33 *1873:D *377:12 0.000153263
34 *1873:D *377:36 2.01779e-05
35 *1874:D *377:12 3.67779e-05
36 *1874:D *377:36 0.000103192
37 *1874:D *377:49 3.05295e-05
38 *1875:D *1875:CLK 4.82919e-05
39 *1876:D *1876:CLK 2.68464e-05
40 *1878:D *1878:CLK 4.13752e-05
41 *1879:CLK *377:49 3.98952e-05
42 *1879:CLK *377:60 5.4256e-05
43 *1879:CLK *377:73 6.8665e-05
44 *375:10 *1874:CLK 2.68464e-05
45 *375:12 *377:49 2.66939e-05
46 *375:16 *377:12 2.24905e-05
47 *376:43 *1864:CLK 2.39642e-05
48 *376:43 *377:12 8.98743e-05
*RES
1 *1963:X *377:10 6.48 
2 *377:10 *377:12 15.915 
3 *377:12 *1864:CLK 6.045 
4 *377:12 *1865:CLK 4.05 
5 *377:10 *377:36 2.145 
6 *377:36 *1874:CLK 4.665 
7 *377:36 *377:49 2.655 
8 *377:49 *1875:CLK 4.05 
9 *377:49 *377:60 1.635 
10 *377:60 *1876:CLK 4.665 
11 *377:60 *377:73 2.655 
12 *377:73 *1877:CLK 3.6 
13 *377:73 *1878:CLK 6.3 
*END

*D_NET *378 0.0048015
*CONN
*I *1862:CLK I *D sky130_fd_sc_hd__dfrtp_4
*I *1861:CLK I *D sky130_fd_sc_hd__dfrtp_4
*I *1860:CLK I *D sky130_fd_sc_hd__dfrtp_4
*I *1859:CLK I *D sky130_fd_sc_hd__dfrtp_4
*I *1856:CLK I *D sky130_fd_sc_hd__dfrtp_4
*I *1855:CLK I *D sky130_fd_sc_hd__dfrtp_4
*I *1854:CLK I *D sky130_fd_sc_hd__dfrtp_4
*I *1852:CLK I *D sky130_fd_sc_hd__dfrtp_4
*I *1858:CLK I *D sky130_fd_sc_hd__dfrtp_4
*I *1964:X O *D sky130_fd_sc_hd__clkbuf_16
*CAP
1 *1862:CLK 0
2 *1861:CLK 2.89741e-05
3 *1860:CLK 6.36616e-05
4 *1859:CLK 2.42846e-05
5 *1856:CLK 6.73455e-05
6 *1855:CLK 3.93314e-05
7 *1854:CLK 7.04052e-05
8 *1852:CLK 0.000323875
9 *1858:CLK 4.02307e-05
10 *1964:X 0.000256251
11 *378:39 0.000474799
12 *378:37 0.000264528
13 *378:35 0.000380669
14 *378:22 0.000321757
15 *378:20 0.000280567
16 *378:18 0.000276511
17 *378:16 0.000238842
18 *378:10 0.000396671
19 *1852:CLK *390:37 0
20 *1852:CLK *394:29 3.50152e-06
21 *1852:CLK *394:35 0
22 *1860:CLK *1748:C 3.50152e-06
23 *1852:D *1852:CLK 2.937e-05
24 *1854:D *1852:CLK 6.47516e-05
25 *1855:D *1855:CLK 5.05521e-05
26 *1856:D *1852:CLK 2.75538e-05
27 *1856:D *1854:CLK 1.30349e-05
28 *1856:D *378:37 4.19797e-05
29 *1856:D *378:39 5.4256e-05
30 *1858:D *1856:CLK 1.30349e-05
31 *1858:D *378:35 0.000166943
32 *1858:D *378:37 6.8197e-05
33 *1859:D *1859:CLK 2.75229e-05
34 *1860:D *378:20 9.24127e-05
35 *1860:D *378:22 7.44453e-05
36 *1861:D *1861:CLK 2.49909e-05
37 *1863:D *1860:CLK 3.30142e-05
38 *1863:D *378:10 7.1377e-05
39 *1863:D *378:16 0.000169549
40 *1863:D *378:18 0.000133588
41 *1863:D *378:20 8.30853e-06
42 *376:14 *378:18 2.37234e-05
43 *376:14 *378:20 2.75538e-05
44 *376:14 *378:22 1.43805e-05
45 *376:14 *378:35 1.52491e-05
*RES
1 *1964:X *378:10 7.41 
2 *378:10 *378:16 2.7 
3 *378:16 *378:18 1.635 
4 *378:18 *378:20 2.655 
5 *378:20 *378:22 2.0175 
6 *378:22 *1858:CLK 4.2825 
7 *378:22 *378:35 3.8025 
8 *378:35 *378:37 2.655 
9 *378:37 *378:39 1.635 
10 *378:39 *1852:CLK 8.955 
11 *378:39 *1854:CLK 4.77 
12 *378:37 *1855:CLK 4.395 
13 *378:35 *1856:CLK 4.77 
14 *378:20 *1859:CLK 4.05 
15 *378:18 *1860:CLK 4.77 
16 *378:16 *1861:CLK 4.05 
17 *378:10 *1862:CLK 3.6 
*END

*D_NET *379 0.00425872
*CONN
*I *1893:CLK I *D sky130_fd_sc_hd__dfrtp_4
*I *1891:CLK I *D sky130_fd_sc_hd__dfrtp_4
*I *1890:CLK I *D sky130_fd_sc_hd__dfrtp_4
*I *1888:CLK I *D sky130_fd_sc_hd__dfrtp_4
*I *1886:CLK I *D sky130_fd_sc_hd__dfrtp_4
*I *1965:X O *D sky130_fd_sc_hd__clkbuf_16
*CAP
1 *1893:CLK 0.000126896
2 *1891:CLK 0
3 *1890:CLK 7.33011e-05
4 *1888:CLK 8.4975e-05
5 *1886:CLK 0.000140975
6 *1965:X 7.76571e-05
7 *379:53 0.000163478
8 *379:40 0.00021711
9 *379:25 0.000305955
10 *379:8 0.000332385
11 *1886:CLK *390:14 0.00011379
12 *1890:CLK *1772:C 1.20052e-05
13 *1893:CLK *396:202 2.50049e-05
14 *379:25 *390:14 4.9968e-05
15 *1886:D *1886:CLK 4.98756e-05
16 *1887:CLK *1886:CLK 2.92496e-05
17 *1887:CLK *379:8 4.66108e-05
18 *1887:CLK *379:25 0.000239723
19 *1887:D *1886:CLK 2.12738e-05
20 *1887:D *379:8 4.25177e-05
21 *1888:D *1890:CLK 2.17688e-05
22 *1888:D *379:25 3.09233e-05
23 *1888:D *379:40 0.000247567
24 *1890:D *1893:CLK 0.000139238
25 *1890:D *379:40 8.53113e-06
26 *1890:D *379:53 0.000139252
27 *1892:D *1893:CLK 0.000141599
28 *1893:D *1893:CLK 4.66108e-05
29 *1976:A *379:8 0.000122699
30 *361:18 *379:8 0.000307327
31 *367:10 *1888:CLK 6.5415e-05
32 *367:25 *379:25 8.53113e-06
33 *367:25 *379:40 0.000129047
34 *367:36 *1893:CLK 0.000239737
35 *367:36 *379:40 0.000206817
36 *367:36 *379:53 0.000130721
37 *367:51 *1893:CLK 0.000120186
*RES
1 *1965:X *379:8 6.465 
2 *379:8 *1886:CLK 6.495 
3 *379:8 *379:25 2.91 
4 *379:25 *1888:CLK 5.115 
5 *379:25 *379:40 3.93 
6 *379:40 *1890:CLK 4.755 
7 *379:40 *379:53 1.635 
8 *379:53 *1891:CLK 3.6 
9 *379:53 *1893:CLK 8.235 
*END

*D_NET *380 0.00475685
*CONN
*I *1885:CLK I *D sky130_fd_sc_hd__dfrtp_4
*I *1884:CLK I *D sky130_fd_sc_hd__dfrtp_4
*I *1883:CLK I *D sky130_fd_sc_hd__dfrtp_4
*I *1882:CLK I *D sky130_fd_sc_hd__dfrtp_4
*I *1881:CLK I *D sky130_fd_sc_hd__dfrtp_4
*I *1880:CLK I *D sky130_fd_sc_hd__dfrtp_4
*I *1966:X O *D sky130_fd_sc_hd__clkbuf_16
*CAP
1 *1885:CLK 0.000764864
2 *1884:CLK 0.000125547
3 *1883:CLK 0
4 *1882:CLK 2.3762e-05
5 *1881:CLK 0
6 *1880:CLK 4.39734e-05
7 *1966:X 0.000264994
8 *380:62 0.000997176
9 *380:51 0.000252003
10 *380:38 0.00027325
11 *380:25 0.000203004
12 *380:12 0.000407721
13 *1884:CLK *1769:C 1.20052e-05
14 *1885:CLK *1885:RESET_B 0.000171743
15 *1885:CLK *1886:RESET_B 1.13047e-05
16 *1885:CLK *406:55 0.000152405
17 *380:12 *1970:A 7.00889e-06
18 *380:12 *390:16 0.000127705
19 *380:25 *390:16 0.000196243
20 *380:38 *390:16 0.000143266
21 *380:51 *390:16 0.000206137
22 *380:62 *390:16 0.000222061
23 *1879:D *380:12 2.86967e-05
24 *1882:D *1882:CLK 2.937e-05
25 *1882:D *380:51 4.66742e-05
26 *1884:D *1884:CLK 4.59354e-05
27 *237:14 *380:12 0
*RES
1 *1966:X *380:12 7.9875 
2 *380:12 *1880:CLK 4.2825 
3 *380:12 *380:25 2.2725 
4 *380:25 *1881:CLK 3.6 
5 *380:25 *380:38 4.25 
6 *380:38 *1882:CLK 2.05 
7 *380:38 *380:51 5.195 
8 *380:51 *1883:CLK 3.6 
9 *380:51 *380:62 4.655 
10 *380:62 *1884:CLK 3.355 
11 *380:62 *1885:CLK 16.925 
*END

*D_NET *381 0.0166643
*CONN
*I *1736:A I *D sky130_fd_sc_hd__nor4b_1
*I *1722:A I *D sky130_fd_sc_hd__nor4b_1
*I *1720:A I *D sky130_fd_sc_hd__nor4b_1
*I *1717:A I *D sky130_fd_sc_hd__nor4b_1
*I *1719:A I *D sky130_fd_sc_hd__nor4b_1
*I *1715:A I *D sky130_fd_sc_hd__nor4b_1
*I *1716:A I *D sky130_fd_sc_hd__nor4b_1
*I *1713:A I *D sky130_fd_sc_hd__nor4b_1
*I *1711:A I *D sky130_fd_sc_hd__nor4b_1
*I *1709:A I *D sky130_fd_sc_hd__nor4b_1
*I *1710:A I *D sky130_fd_sc_hd__nor4b_1
*I *1708:A I *D sky130_fd_sc_hd__nor4b_1
*I *1714:A I *D sky130_fd_sc_hd__nor4b_1
*I *1712:A I *D sky130_fd_sc_hd__nor4b_1
*I *1718:A I *D sky130_fd_sc_hd__nor4b_1
*I *1721:A I *D sky130_fd_sc_hd__nor4b_1
*I *1967:X O *D sky130_fd_sc_hd__buf_4
*CAP
1 *1736:A 3.92455e-05
2 *1722:A 0
3 *1720:A 0
4 *1717:A 0.000165039
5 *1719:A 0
6 *1715:A 0.000107029
7 *1716:A 0
8 *1713:A 3.58469e-05
9 *1711:A 9.75512e-05
10 *1709:A 3.58421e-05
11 *1710:A 5.90607e-05
12 *1708:A 0.00015941
13 *1714:A 3.58421e-05
14 *1712:A 6.53743e-05
15 *1718:A 0.000206695
16 *1721:A 0
17 *1967:X 1.9484e-05
18 *381:120 0.000351131
19 *381:96 0.000377806
20 *381:92 0.000440843
21 *381:90 0.000426449
22 *381:68 0.000309974
23 *381:66 0.00068141
24 *381:58 0.000224327
25 *381:56 0.00030506
26 *381:54 0.000222057
27 *381:52 0.000403204
28 *381:50 0.000386481
29 *381:46 0.000275927
30 *381:28 0.000353008
31 *381:18 0.00127327
32 *381:6 0.00116061
33 *1708:A *1708:C 0.000123955
34 *1710:A *1710:C 2.74886e-05
35 *1711:A *382:55 7.01359e-05
36 *1712:A *1712:B 0.00011432
37 *1713:A *1713:B 8.50369e-06
38 *1713:A *1713:C 0.000129514
39 *1715:A *1715:B 4.82919e-05
40 *1715:A *1715:C 4.66108e-05
41 *1715:A *1716:B 5.68717e-05
42 *1717:A *1717:B 2.49909e-05
43 *1717:A *1717:C 2.15271e-05
44 *1718:A *1722:C 2.61042e-05
45 *1718:A *382:33 0
46 *1718:A *391:20 0.00031546
47 *1736:A *1736:B 6.69608e-06
48 *1736:A *1736:C 8.77498e-05
49 *381:6 *1736:C 1.46744e-05
50 *381:6 *416:165 8.77516e-05
51 *381:18 *1722:B 0
52 *381:18 *1722:C 0
53 *381:18 *1723:B 2.60908e-05
54 *381:18 *1736:B 8.87475e-05
55 *381:18 *382:18 0.00156061
56 *381:18 *382:33 2.97746e-05
57 *381:18 *391:10 0
58 *381:18 *392:14 6.23541e-06
59 *381:18 *393:10 0.000139933
60 *381:18 *393:12 0.00022448
61 *381:18 *393:14 0.000141599
62 *381:18 *393:16 0.000226834
63 *381:18 *393:18 0.000141599
64 *381:18 *393:20 0.000226834
65 *381:18 *393:22 0.000187071
66 *381:18 *393:24 0.00018196
67 *381:18 *393:26 0.000141599
68 *381:18 *393:28 0.00035893
69 *381:18 *393:32 0.000176647
70 *381:28 *1721:B 8.31139e-05
71 *381:28 *1722:C 0.000157041
72 *381:28 *382:20 2.16917e-05
73 *381:46 *1722:B 2.05056e-05
74 *381:46 *1722:C 0.000151541
75 *381:46 *382:20 2.30292e-05
76 *381:56 *1716:B 2.97746e-05
77 *381:56 *391:39 0
78 *381:56 *391:43 6.85608e-05
79 *381:58 *1716:B 0.000175899
80 *381:58 *391:43 4.43871e-06
81 *381:58 *391:49 7.63125e-05
82 *381:66 *1716:B 9.09788e-06
83 *381:68 *382:120 6.13176e-05
84 *381:90 *382:49 0.000633563
85 *381:92 *1710:B 2.46089e-05
86 *381:92 *382:49 5.16418e-05
87 *381:92 *391:70 2.61813e-05
88 *381:96 *1708:C 2.43962e-05
89 *381:96 *1710:B 1.73506e-05
90 *381:96 *391:70 2.68016e-05
91 *381:96 *391:72 7.97845e-05
92 *381:120 *1709:C 7.08493e-05
93 *1710:D_N *1708:A 8.26971e-05
94 *1710:D_N *1710:A 8.65961e-05
95 *1713:D_N *1713:A 8.65961e-05
96 *1716:D_N *381:56 2.53191e-06
97 *1716:D_N *381:58 1.23331e-05
98 *1716:D_N *381:66 2.97004e-06
99 *1719:D_N *381:52 5.22283e-05
100 *1719:D_N *381:54 7.16268e-05
101 *1719:D_N *381:56 2.97004e-06
102 *1720:D_N *381:50 6.80175e-05
103 *1720:D_N *381:52 1.54318e-05
104 *1721:D_N *381:28 1.08758e-05
105 *1722:D_N *381:18 0.000325343
106 *1722:D_N *381:46 8.8266e-05
107 *1723:D_N *381:18 0
108 *1728:D_N *381:18 3.96263e-05
109 *1736:D_N *1736:A 3.1226e-05
110 *1736:D_N *381:6 0.00012438
111 *1822:D *1710:A 8.50369e-06
112 *1823:CLK *381:90 0
113 *1823:D *381:120 2.20732e-05
114 *1825:D *1713:A 2.23589e-05
115 *1825:D *381:90 0
116 *1828:D *381:66 0.000118489
117 *1828:D *381:68 0.000121817
118 *1829:D *1715:A 4.82863e-05
119 *1831:D *1717:A 2.75145e-05
120 *1850:CLK *381:18 0
121 *1958:A *381:90 6.65066e-05
122 *372:25 *381:90 0
123 *372:36 *381:90 0
*RES
1 *1967:X *381:6 2.74 
2 *381:6 *381:18 37.75 
3 *381:18 *381:28 3.795 
4 *381:28 *1721:A 1.6 
5 *381:28 *1718:A 9.785 
6 *381:18 *381:46 1.485 
7 *381:46 *381:50 5.93 
8 *381:50 *381:52 2.145 
9 *381:52 *381:54 2.145 
10 *381:54 *381:56 2.145 
11 *381:56 *381:58 2.145 
12 *381:58 *381:66 4.115 
13 *381:66 *381:68 2.52 
14 *381:68 *1712:A 6.98 
15 *381:68 *1714:A 2.215 
16 *381:66 *381:90 9.755 
17 *381:90 *381:92 1.38 
18 *381:92 *381:96 4.91 
19 *381:96 *1708:A 4.84 
20 *381:96 *1710:A 3.1 
21 *381:92 *381:120 4.52 
22 *381:120 *1709:A 2.215 
23 *381:120 *1711:A 6.98 
24 *381:90 *1713:A 5.1 
25 *381:58 *1716:A 3.6 
26 *381:56 *1715:A 5.79 
27 *381:54 *1719:A 3.6 
28 *381:52 *1717:A 6.51 
29 *381:50 *1720:A 3.6 
30 *381:46 *1722:A 1.6 
31 *381:6 *1736:A 2.755 
*END

*D_NET *382 0.0165333
*CONN
*I *1736:B I *D sky130_fd_sc_hd__nor4b_1
*I *1722:B I *D sky130_fd_sc_hd__nor4b_1
*I *1720:B I *D sky130_fd_sc_hd__nor4b_1
*I *1718:B I *D sky130_fd_sc_hd__nor4b_1
*I *1717:B I *D sky130_fd_sc_hd__nor4b_1
*I *1719:B I *D sky130_fd_sc_hd__nor4b_1
*I *1716:B I *D sky130_fd_sc_hd__nor4b_1
*I *1715:B I *D sky130_fd_sc_hd__nor4b_1
*I *1714:B I *D sky130_fd_sc_hd__nor4b_1
*I *1712:B I *D sky130_fd_sc_hd__nor4b_1
*I *1713:B I *D sky130_fd_sc_hd__nor4b_1
*I *1710:B I *D sky130_fd_sc_hd__nor4b_1
*I *1711:B I *D sky130_fd_sc_hd__nor4b_1
*I *1709:B I *D sky130_fd_sc_hd__nor4b_1
*I *1708:B I *D sky130_fd_sc_hd__nor4b_1
*I *1721:B I *D sky130_fd_sc_hd__nor4b_1
*I *1968:X O *D sky130_fd_sc_hd__buf_4
*CAP
1 *1736:B 0.000142706
2 *1722:B 6.36831e-05
3 *1720:B 9.20309e-05
4 *1718:B 9.14376e-05
5 *1717:B 5.03661e-05
6 *1719:B 9.8771e-05
7 *1716:B 0.000256601
8 *1715:B 2.89986e-05
9 *1714:B 0
10 *1712:B 7.81678e-05
11 *1713:B 0.000132305
12 *1710:B 0.000271233
13 *1711:B 3.58421e-05
14 *1709:B 0
15 *1708:B 0.000238982
16 *1721:B 0.000116723
17 *1968:X 6.47418e-05
18 *382:182 0.000183468
19 *382:138 0.000285599
20 *382:120 0.000151224
21 *382:88 0.000508405
22 *382:55 0.000331778
23 *382:51 0.000271521
24 *382:49 0.000545818
25 *382:41 0.000514679
26 *382:39 0.000229679
27 *382:37 0.000355976
28 *382:35 0.000279607
29 *382:33 0.000348277
30 *382:20 0.000490983
31 *382:18 0.00163283
32 *382:8 0.00169246
33 *1712:B *391:57 0.000156468
34 *1713:B *1713:C 0.000145076
35 *1716:B *1715:C 4.66108e-05
36 *1717:B *1717:C 5.46691e-05
37 *1718:B *391:20 2.86975e-05
38 *1718:B *391:29 4.35931e-05
39 *1719:B *1719:C 0.00012182
40 *1719:B *391:39 8.23457e-05
41 *1720:B *1720:C 5.85085e-05
42 *1720:B *391:29 1.56428e-05
43 *1722:B *1722:C 1.41165e-05
44 *1736:B *1736:C 1.52352e-05
45 *382:18 *392:42 0.00035893
46 *382:33 *1722:C 2.30258e-05
47 *382:33 *391:33 7.10377e-05
48 *382:35 *391:33 8.12102e-05
49 *382:35 *391:39 9.09788e-06
50 *382:37 *391:39 0.000242168
51 *382:39 *391:39 2.8531e-05
52 *382:49 *391:57 4.15689e-05
53 *382:49 *391:68 0.000543947
54 *382:49 *391:70 4.86642e-05
55 *382:51 *1711:C 6.5018e-05
56 *382:51 *1713:C 4.66108e-05
57 *382:88 *1713:C 0.00015896
58 *382:120 *391:53 7.25059e-05
59 *1711:A *382:55 7.01359e-05
60 *1712:A *1712:B 0.00011432
61 *1713:A *1713:B 8.50369e-06
62 *1713:D_N *382:51 1.31297e-05
63 *1715:A *1715:B 4.82919e-05
64 *1715:A *1716:B 5.68717e-05
65 *1716:D_N *382:39 5.57088e-05
66 *1716:D_N *382:41 0.000104196
67 *1716:D_N *382:49 5.18317e-06
68 *1717:A *1717:B 2.49909e-05
69 *1718:A *382:33 0
70 *1719:D_N *1719:B 8.65961e-05
71 *1720:D_N *1720:B 4.99619e-05
72 *1720:D_N *382:33 3.57938e-05
73 *1722:D_N *382:18 8.91837e-05
74 *1722:D_N *382:20 8.65961e-05
75 *1728:D_N *382:18 3.96263e-05
76 *1736:A *1736:B 6.69608e-06
77 *1736:D_N *1736:B 2.26862e-05
78 *1824:CLK *1713:B 5.12969e-06
79 *1825:D *1713:B 8.64421e-05
80 *1828:D *382:120 4.77719e-05
81 *1829:D *1716:B 1.19928e-05
82 *1832:D *1718:B 4.77719e-05
83 *1832:D *1720:B 0.000238306
84 *1835:D *382:18 0
85 *1837:CLK *382:18 0
86 *1849:D *382:8 7.08554e-05
87 *1959:A *382:18 0.000116853
88 *372:60 *382:18 0
89 *374:36 *382:18 0
90 *374:49 *382:18 0
91 *381:18 *1722:B 0
92 *381:18 *1736:B 8.87475e-05
93 *381:18 *382:18 0.00156061
94 *381:18 *382:33 2.97746e-05
95 *381:28 *1721:B 8.31139e-05
96 *381:28 *382:20 2.16917e-05
97 *381:46 *1722:B 2.05056e-05
98 *381:46 *382:20 2.30292e-05
99 *381:56 *1716:B 2.97746e-05
100 *381:58 *1716:B 0.000175899
101 *381:66 *1716:B 9.09788e-06
102 *381:68 *382:120 6.13176e-05
103 *381:90 *382:49 0.000633563
104 *381:92 *1710:B 2.46089e-05
105 *381:92 *382:49 5.16418e-05
106 *381:96 *1710:B 1.73506e-05
*RES
1 *1968:X *382:8 4.74 
2 *382:8 *382:18 32.6 
3 *382:18 *382:20 1.485 
4 *382:20 *1721:B 3.445 
5 *382:20 *382:33 6.95 
6 *382:33 *382:35 1.125 
7 *382:35 *382:37 2.91 
8 *382:37 *382:39 1.635 
9 *382:39 *382:41 2.4 
10 *382:41 *382:49 11.585 
11 *382:49 *382:51 1.83 
12 *382:51 *382:55 3.38 
13 *382:55 *1708:B 7.11 
14 *382:55 *1709:B 3.6 
15 *382:51 *1711:B 2.215 
16 *382:49 *382:88 1.485 
17 *382:88 *1710:B 9.575 
18 *382:88 *1713:B 4.405 
19 *382:41 *382:120 3.845 
20 *382:120 *1712:B 7.49 
21 *382:120 *1714:B 1.6 
22 *382:39 *382:138 2 
23 *382:138 *1715:B 2.41 
24 *382:138 *1716:B 10.175 
25 *382:37 *1719:B 5.775 
26 *382:35 *1717:B 4.665 
27 *382:33 *382:182 2 
28 *382:182 *1718:B 3.445 
29 *382:182 *1720:B 4.39 
30 *382:18 *1722:B 2.755 
31 *382:8 *1736:B 6.66 
*END

*D_NET *383 0.00879261
*CONN
*I *1734:B I *D sky130_fd_sc_hd__nor4b_1
*I *1735:B I *D sky130_fd_sc_hd__nor4b_1
*I *1733:B I *D sky130_fd_sc_hd__nor4b_1
*I *1732:B I *D sky130_fd_sc_hd__nor4b_1
*I *1731:B I *D sky130_fd_sc_hd__nor4b_1
*I *1730:B I *D sky130_fd_sc_hd__nor4b_1
*I *1729:B I *D sky130_fd_sc_hd__nor4b_1
*I *1728:B I *D sky130_fd_sc_hd__nor4b_1
*I *1727:B I *D sky130_fd_sc_hd__nor4b_1
*I *1726:B I *D sky130_fd_sc_hd__nor4b_1
*I *1725:B I *D sky130_fd_sc_hd__nor4b_1
*I *1724:B I *D sky130_fd_sc_hd__nor4b_1
*I *1723:B I *D sky130_fd_sc_hd__nor4b_1
*I *1969:X O *D sky130_fd_sc_hd__clkbuf_4
*CAP
1 *1734:B 0.000152062
2 *1735:B 7.36753e-05
3 *1733:B 0
4 *1732:B 8.16901e-05
5 *1731:B 0
6 *1730:B 8.16901e-05
7 *1729:B 0
8 *1728:B 0.000133006
9 *1727:B 0
10 *1726:B 0.000102892
11 *1725:B 7.15612e-05
12 *1724:B 0.000117465
13 *1723:B 9.08133e-05
14 *1969:X 0
15 *383:37 0.000209836
16 *383:24 0.000287154
17 *383:22 0.000311945
18 *383:20 6.95741e-05
19 *383:18 0.000228881
20 *383:16 0.000116098
21 *383:14 0.000176928
22 *383:12 9.52379e-05
23 *383:10 0.000176928
24 *383:8 7.42604e-05
25 *383:6 0.000108973
26 *383:4 0.000152062
27 *1723:B *1723:A 0.000154551
28 *1723:B *393:32 0.000178321
29 *1724:B *1724:C 9.09788e-06
30 *1724:B *391:10 4.99524e-05
31 *1725:B *1725:C 0.000186316
32 *1725:B *392:46 3.01609e-05
33 *1726:B *1726:C 0.000188094
34 *1726:B *392:36 0.000153816
35 *1728:B *1728:A 0.00015639
36 *1728:B *1728:C 1.41165e-05
37 *1730:B *1730:A 0.00015639
38 *1730:B *1730:C 0.000188891
39 *1732:B *1732:A 0.00015639
40 *1732:B *1732:C 0.000188891
41 *1734:B *1734:A 2.25898e-05
42 *1734:B *1734:C 1.06688e-05
43 *1735:B *392:14 9.09788e-06
44 *1735:B *392:16 0.000157762
45 *1735:B *392:18 6.42432e-05
46 *1735:B *393:10 0.000110683
47 *1735:B *393:12 0.000117832
48 *383:8 *392:18 0.000104599
49 *383:8 *393:12 0.000108322
50 *383:8 *393:14 9.50342e-06
51 *383:10 *392:18 9.09788e-06
52 *383:10 *392:20 0.000150706
53 *383:10 *393:14 0.000133763
54 *383:10 *393:16 3.09233e-05
55 *383:12 *392:20 2.97802e-05
56 *383:12 *392:22 0.000169465
57 *383:12 *393:16 0.000196613
58 *383:12 *393:18 9.50342e-06
59 *383:14 *392:22 9.09788e-06
60 *383:14 *392:24 0.000150706
61 *383:14 *393:18 0.000133763
62 *383:14 *393:20 3.09233e-05
63 *383:16 *392:24 2.97802e-05
64 *383:16 *392:26 0.000169465
65 *383:16 *393:20 0.000196613
66 *383:16 *393:22 9.50342e-06
67 *383:18 *392:26 9.09788e-06
68 *383:18 *392:28 0.000181898
69 *383:18 *392:30 4.11119e-05
70 *383:18 *393:22 0.000179922
71 *383:18 *393:24 4.92971e-05
72 *383:20 *392:30 0.000127958
73 *383:20 *393:24 0.000131124
74 *383:20 *393:26 9.50342e-06
75 *383:22 *392:30 9.09788e-06
76 *383:22 *392:36 0.000128611
77 *383:22 *393:26 0.000133763
78 *383:22 *393:28 9.50342e-06
79 *383:24 *392:36 5.1875e-05
80 *383:24 *393:28 0.000352768
81 *383:24 *393:32 9.50342e-06
82 *383:37 *1725:C 0
83 *1725:D_N *1724:B 0.000196669
84 *1725:D_N *1725:B 0.000107205
85 *1725:D_N *383:37 0
86 *1734:D_N *1734:B 0.000119762
87 *1838:D *1725:B 1.52352e-05
88 *1842:D *1728:B 3.50152e-06
89 *381:18 *1723:B 2.60908e-05
*RES
1 *1969:X *383:4 1.6 
2 *383:4 *383:6 2 
3 *383:6 *383:8 1.38 
4 *383:8 *383:10 1.89 
5 *383:10 *383:12 2.4 
6 *383:12 *383:14 1.89 
7 *383:14 *383:16 2.4 
8 *383:16 *383:18 2.655 
9 *383:18 *383:20 1.635 
10 *383:20 *383:22 1.635 
11 *383:22 *383:24 4.185 
12 *383:24 *1723:B 6.255 
13 *383:24 *383:37 2.36 
14 *383:37 *1724:B 8.045 
15 *383:37 *1725:B 3.79 
16 *383:22 *1726:B 6.15 
17 *383:20 *1727:B 3.6 
18 *383:18 *1728:B 5.79 
19 *383:16 *1729:B 3.6 
20 *383:14 *1730:B 5.79 
21 *383:12 *1731:B 3.6 
22 *383:10 *1732:B 5.79 
23 *383:8 *1733:B 3.6 
24 *383:6 *1735:B 6.255 
25 *383:4 *1734:B 4.15 
*END

*D_NET *384 0.0166848
*CONN
*I *1764:B I *D sky130_fd_sc_hd__nor4b_1
*I *1763:B I *D sky130_fd_sc_hd__nor4b_1
*I *1762:B I *D sky130_fd_sc_hd__nor4b_1
*I *1749:B I *D sky130_fd_sc_hd__nor4b_1
*I *1747:B I *D sky130_fd_sc_hd__nor4b_1
*I *1746:B I *D sky130_fd_sc_hd__nor4b_1
*I *1748:B I *D sky130_fd_sc_hd__nor4b_1
*I *1744:B I *D sky130_fd_sc_hd__nor4b_1
*I *1745:B I *D sky130_fd_sc_hd__nor4b_1
*I *1742:B I *D sky130_fd_sc_hd__nor4b_1
*I *1743:B I *D sky130_fd_sc_hd__nor4b_1
*I *1740:B I *D sky130_fd_sc_hd__nor4b_1
*I *1741:B I *D sky130_fd_sc_hd__nor4b_1
*I *1739:B I *D sky130_fd_sc_hd__nor4b_1
*I *1738:B I *D sky130_fd_sc_hd__nor4b_1
*I *1737:B I *D sky130_fd_sc_hd__nor4b_1
*I *1970:X O *D sky130_fd_sc_hd__buf_4
*CAP
1 *1764:B 2.25315e-05
2 *1763:B 4.78149e-05
3 *1762:B 0
4 *1749:B 2.87794e-05
5 *1747:B 0.000314334
6 *1746:B 0.000115853
7 *1748:B 4.62879e-05
8 *1744:B 0.000107986
9 *1745:B 6.01285e-05
10 *1742:B 0.000118544
11 *1743:B 5.99588e-05
12 *1740:B 9.80774e-05
13 *1741:B 4.00827e-05
14 *1739:B 0.000264802
15 *1738:B 0.000131529
16 *1737:B 0.000173025
17 *1970:X 0.000117096
18 *384:68 0.000352483
19 *384:66 0.00051716
20 *384:56 0.000333317
21 *384:50 0.000332756
22 *384:48 0.000293607
23 *384:46 0.000351334
24 *384:44 0.00028034
25 *384:42 0.000313392
26 *384:40 0.000274853
27 *384:38 0.000274343
28 *384:36 0.000446872
29 *384:34 0.00152167
30 *384:20 0.00152909
31 *384:18 0.000318422
32 *384:12 0.000301626
33 *1737:B *400:20 3.86324e-05
34 *1737:B *400:24 0
35 *1737:B *400:82 1.10631e-05
36 *1737:B *416:163 0.000221673
37 *1738:B *394:29 3.52488e-05
38 *1738:B *400:20 3.50152e-06
39 *1738:B *400:82 1.17036e-05
40 *1739:B *1739:A 0.000308131
41 *1739:B *1739:C 1.61831e-05
42 *1739:B *394:47 9.77048e-06
43 *1740:B *1740:A 1.08758e-05
44 *1740:B *1740:C 4.77757e-05
45 *1740:B *394:57 4.41847e-05
46 *1741:B *394:47 2.10214e-05
47 *1741:B *403:66 1.08758e-05
48 *1742:B *1742:A 1.08758e-05
49 *1742:B *1742:C 4.66108e-05
50 *1743:B *1743:A 1.08758e-05
51 *1743:B *1743:C 2.10214e-05
52 *1744:B *1744:A 2.00153e-05
53 *1744:B *1744:C 3.70572e-05
54 *1745:B *1745:A 4.22112e-05
55 *1745:B *1745:C 1.41165e-05
56 *1746:B *1746:A 1.08758e-05
57 *1746:B *1746:C 1.87401e-05
58 *1747:B *1747:C 6.45599e-06
59 *1747:B *403:33 1.14169e-05
60 *1747:B *403:42 7.13091e-05
61 *1748:B *1748:A 5.83121e-06
62 *1748:B *1748:C 2.3256e-05
63 *1749:B *1749:A 1.08758e-05
64 *1749:B *1749:C 4.44401e-05
65 *1749:B *403:42 0
66 *1763:B *1764:A 3.57349e-05
67 *1763:B *1764:C 0.000157378
68 *1763:B *403:15 0.00016031
69 *1764:B *1764:A 3.19539e-05
70 *384:12 *1764:C 1.55664e-05
71 *384:18 *1764:A 0.000160119
72 *384:18 *1764:C 1.4904e-05
73 *384:18 *403:21 2.01779e-05
74 *384:20 *403:21 0.000187602
75 *384:34 *1753:B 0.000144606
76 *384:34 *1761:C 9.57675e-05
77 *384:34 *1997:A 0
78 *384:34 *385:58 2.07184e-05
79 *384:34 *385:77 0.000119242
80 *384:34 *395:32 0.000193856
81 *384:34 *395:58 5.55035e-05
82 *384:34 *395:69 9.08774e-05
83 *384:34 *395:80 0.000134538
84 *384:34 *395:93 7.26629e-05
85 *384:34 *395:104 8.1552e-05
86 *384:34 *395:115 7.1301e-06
87 *384:34 *395:128 0.000189808
88 *384:34 *400:82 0.000507256
89 *384:34 *400:99 0.000147337
90 *384:34 *403:21 9.09788e-06
91 *384:34 *403:33 0
92 *384:34 *411:47 6.60187e-05
93 *384:34 *411:51 0.000156973
94 *384:34 *411:53 0.000220712
95 *384:34 *411:55 0.000134503
96 *384:34 *411:57 0.000154683
97 *384:34 *416:130 0
98 *384:34 *416:132 0
99 *384:36 *400:82 8.45475e-05
100 *384:38 *400:82 0.000109009
101 *384:40 *400:82 0.000152127
102 *384:42 *400:82 0.000195238
103 *384:44 *400:82 0.000129742
104 *384:46 *400:82 0.000219005
105 *384:48 *400:82 0.000129047
106 *384:50 *394:57 1.59888e-05
107 *384:50 *400:82 0.00021665
108 *384:56 *394:57 7.0687e-05
109 *384:56 *400:82 0.000138551
110 *384:66 *394:47 5.92835e-05
111 *384:66 *400:82 0.000187238
112 *384:66 *403:66 1.33285e-05
113 *384:66 *416:163 0
114 *384:68 *400:82 4.53788e-05
115 *1738:D_N *1738:B 8.97951e-05
116 *1739:D_N *1739:B 4.01749e-05
117 *1739:D_N *384:66 1.92979e-05
118 *1741:D_N *384:66 7.75341e-05
119 *1753:D_N *384:34 0.000104671
120 *1759:D_N *384:34 0.000196303
121 *1764:D_N *384:18 4.9968e-05
122 *1764:D_N *384:20 8.53113e-06
123 *1855:D *1740:B 4.66108e-05
124 *1857:D *1742:B 4.66108e-05
125 *1859:D *1744:B 2.49909e-05
126 *1860:D *1745:B 1.20052e-05
127 *1861:D *1746:B 4.66108e-05
128 *1862:D *1747:B 0.000230799
129 *1862:D *1749:B 2.10214e-05
130 *1863:D *1748:B 3.50152e-06
131 *1878:CLK *384:20 0
132 *1878:D *1764:B 1.74236e-05
133 *1878:D *384:12 1.95458e-05
134 *1879:D *384:12 9.22308e-05
135 *377:12 *384:34 0
136 *377:73 *384:20 0
137 *377:73 *384:34 0
*RES
1 *1970:X *384:12 7.5275 
2 *384:12 *384:18 4.4375 
3 *384:18 *384:20 2.4 
4 *384:20 *384:34 35.995 
5 *384:34 *384:36 1.125 
6 *384:36 *384:38 1.38 
7 *384:38 *384:40 1.89 
8 *384:40 *384:42 2.4 
9 *384:42 *384:44 1.635 
10 *384:44 *384:46 2.655 
11 *384:46 *384:48 1.635 
12 *384:48 *384:50 2.655 
13 *384:50 *384:56 3.995 
14 *384:56 *384:66 6.26 
15 *384:66 *384:68 0.9975 
16 *384:68 *1737:B 7.0875 
17 *384:68 *1738:B 6.0375 
18 *384:66 *1739:B 8.205 
19 *384:56 *1741:B 2.41 
20 *384:50 *1740:B 5.445 
21 *384:48 *1743:B 4.665 
22 *384:46 *1742:B 5.445 
23 *384:44 *1745:B 4.665 
24 *384:42 *1744:B 5.445 
25 *384:40 *1748:B 4.41 
26 *384:38 *1746:B 5.445 
27 *384:36 *1747:B 8.22 
28 *384:34 *1749:B 4.41 
29 *384:20 *1762:B 3.6 
30 *384:18 *1763:B 5.43 
31 *384:12 *1764:B 2.215 
*END

*D_NET *385 0.00852468
*CONN
*I *1761:B I *D sky130_fd_sc_hd__nor4b_1
*I *1759:B I *D sky130_fd_sc_hd__nor4b_1
*I *1758:B I *D sky130_fd_sc_hd__nor4b_1
*I *1756:B I *D sky130_fd_sc_hd__nor4b_1
*I *1757:B I *D sky130_fd_sc_hd__nor4b_1
*I *1755:B I *D sky130_fd_sc_hd__nor4b_1
*I *1752:B I *D sky130_fd_sc_hd__nor4b_1
*I *1751:B I *D sky130_fd_sc_hd__nor4b_1
*I *1750:B I *D sky130_fd_sc_hd__nor4b_1
*I *1753:B I *D sky130_fd_sc_hd__nor4b_1
*I *1754:B I *D sky130_fd_sc_hd__nor4b_1
*I *1760:B I *D sky130_fd_sc_hd__nor4b_1
*I *1971:X O *D sky130_fd_sc_hd__clkbuf_4
*CAP
1 *1761:B 0.000127938
2 *1759:B 7.25325e-05
3 *1758:B 0.000257051
4 *1756:B 9.63653e-05
5 *1757:B 7.12922e-05
6 *1755:B 0
7 *1752:B 0
8 *1751:B 6.90477e-05
9 *1750:B 9.24531e-05
10 *1753:B 0.000126043
11 *1754:B 8.35656e-05
12 *1760:B 0.000115346
13 *1971:X 9.3836e-05
14 *385:81 0.000217188
15 *385:77 0.000148019
16 *385:58 0.000352734
17 *385:52 0.000273738
18 *385:37 0.00032353
19 *385:31 0.000333413
20 *385:29 0.000317241
21 *385:27 0.000337252
22 *385:25 0.00027911
23 *385:23 0.000313655
24 *385:6 0.000209182
25 *1750:B *1750:A 7.01303e-05
26 *1750:B *395:19 4.79946e-05
27 *1750:B *395:32 5.13616e-06
28 *1750:B *400:82 4.18603e-06
29 *1750:B *400:99 1.61461e-05
30 *1750:B *403:33 0
31 *1750:B *411:61 4.72463e-05
32 *1751:B *1751:A 0.000105249
33 *1751:B *1751:C 0.000150211
34 *1753:B *1753:C 0.000156468
35 *1754:B *1754:C 4.77719e-05
36 *1756:B *1756:C 4.77719e-05
37 *1757:B *1757:A 1.41165e-05
38 *1757:B *1757:C 1.16854e-05
39 *1758:B *1758:A 1.16854e-05
40 *1758:B *1758:C 4.11718e-05
41 *1760:B *1760:A 9.13949e-06
42 *1760:B *1760:C 5.33679e-05
43 *1760:B *411:17 2.84993e-05
44 *1761:B *1761:A 7.06865e-05
45 *1761:B *1761:C 9.06329e-05
46 *385:25 *1761:A 8.18997e-05
47 *385:25 *1761:C 5.05223e-05
48 *385:25 *395:104 1.03592e-05
49 *385:25 *395:115 7.06865e-05
50 *385:25 *395:128 0.000491554
51 *385:25 *411:21 0.000492693
52 *385:25 *416:163 0.000118407
53 *385:27 *395:104 3.10777e-05
54 *385:29 *395:104 0.000108322
55 *385:31 *395:80 8.59296e-05
56 *385:31 *395:93 0.000137571
57 *385:31 *395:104 8.53113e-06
58 *385:37 *395:69 8.53113e-06
59 *385:37 *395:80 0.000162325
60 *385:52 *395:69 4.62396e-05
61 *385:58 *395:58 5.35418e-05
62 *385:58 *395:69 8.68097e-06
63 *385:77 *1752:C 4.66108e-05
64 *385:77 *1753:C 3.18959e-05
65 *385:81 *411:59 0.000115614
66 *385:81 *411:61 6.15924e-05
67 *1753:D_N *1750:B 7.9642e-06
68 *1753:D_N *385:81 0.000184444
69 *1757:D_N *1757:B 5.83121e-06
70 *1761:D_N *1761:B 5.83121e-06
71 *1866:D *1751:B 8.35068e-05
72 *1867:D *385:77 4.77757e-05
73 *1871:D *1756:B 1.08758e-05
74 *1873:D *1758:B 0.000194274
75 *1873:D *385:25 0
76 *1875:D *1760:B 5.83121e-06
77 *1875:D *385:6 4.13445e-05
78 *359:8 *1754:B 4.11779e-05
79 *359:8 *385:52 4.88478e-05
80 *377:12 *385:29 0
81 *377:12 *385:31 0
82 *377:12 *385:37 0
83 *384:34 *1753:B 0.000144606
84 *384:34 *385:58 2.07184e-05
85 *384:34 *385:77 0.000119242
*RES
1 *1971:X *385:6 2.74 
2 *385:6 *1760:B 3.925 
3 *385:6 *385:23 2 
4 *385:23 *385:25 7.1175 
5 *385:25 *385:27 0.4875 
6 *385:27 *385:29 1.38 
7 *385:29 *385:31 2.655 
8 *385:31 *385:37 4.25 
9 *385:37 *1754:B 3.1 
10 *385:37 *385:52 4.43 
11 *385:52 *385:58 2.445 
12 *385:58 *1753:B 6.81 
13 *385:58 *385:77 4.1 
14 *385:77 *385:81 4.145 
15 *385:81 *1750:B 5.49 
16 *385:81 *1751:B 5.895 
17 *385:77 *1752:B 1.6 
18 *385:52 *1755:B 3.6 
19 *385:31 *1757:B 4.755 
20 *385:29 *1756:B 5.1 
21 *385:27 *1758:B 7.08 
22 *385:25 *1759:B 4.6275 
23 *385:23 *1761:B 5.88 
*END

*D_NET *386 0.0177623
*CONN
*I *1774:B I *D sky130_fd_sc_hd__nor4b_1
*I *1777:B I *D sky130_fd_sc_hd__nor4b_1
*I *1791:B I *D sky130_fd_sc_hd__nor4b_1
*I *1790:B I *D sky130_fd_sc_hd__nor4b_1
*I *1789:B I *D sky130_fd_sc_hd__nor4b_1
*I *1788:B I *D sky130_fd_sc_hd__nor4b_1
*I *1775:B I *D sky130_fd_sc_hd__nor4b_1
*I *1772:B I *D sky130_fd_sc_hd__nor4b_1
*I *1773:B I *D sky130_fd_sc_hd__nor4b_1
*I *1770:B I *D sky130_fd_sc_hd__nor4b_1
*I *1769:B I *D sky130_fd_sc_hd__nor4b_1
*I *1768:B I *D sky130_fd_sc_hd__nor4b_1
*I *1767:B I *D sky130_fd_sc_hd__nor4b_1
*I *1765:B I *D sky130_fd_sc_hd__nor4b_1
*I *1766:B I *D sky130_fd_sc_hd__nor4b_1
*I *1771:B I *D sky130_fd_sc_hd__nor4b_1
*I *1972:X O *D sky130_fd_sc_hd__buf_4
*CAP
1 *1774:B 0.000263645
2 *1777:B 0
3 *1791:B 0.00012233
4 *1790:B 8.04871e-05
5 *1789:B 6.41479e-05
6 *1788:B 7.57711e-05
7 *1775:B 0
8 *1772:B 9.57522e-05
9 *1773:B 0
10 *1770:B 0.00010062
11 *1769:B 9.93823e-05
12 *1768:B 0
13 *1767:B 0.000142219
14 *1765:B 0
15 *1766:B 0.000252726
16 *1771:B 0.000150856
17 *1972:X 4.59691e-05
18 *386:198 0.000355563
19 *386:183 0.000308799
20 *386:170 0.00149387
21 *386:148 0.00145157
22 *386:144 0.000588154
23 *386:129 0.000253443
24 *386:116 0.000214236
25 *386:107 0.000319029
26 *386:88 0.000418318
27 *386:43 0.000557974
28 *386:33 0.000552237
29 *386:29 0.000251172
30 *386:25 0.000395178
31 *386:23 0.000212242
32 *386:8 0.000196825
33 *1766:B *1765:A 1.71458e-05
34 *1766:B *1766:C 0.000123592
35 *1767:B *1767:C 4.07117e-05
36 *1769:B *1769:C 0.00012182
37 *1770:B *1770:C 2.75668e-05
38 *1771:B *1771:C 5.12462e-05
39 *1771:B *390:118 4.10688e-05
40 *1771:B *390:149 0.000120269
41 *1772:B *1772:C 7.35284e-05
42 *1772:B *396:133 0.000119762
43 *1774:B *396:177 3.01405e-05
44 *1788:B *1788:A 2.10214e-05
45 *1788:B *1788:C 0.000188094
46 *1788:B *396:202 8.49205e-05
47 *1789:B *1789:A 2.75229e-05
48 *1790:B *1790:A 2.10214e-05
49 *1790:B *1790:C 0.000156758
50 *1791:B *1791:A 4.79375e-05
51 *1791:B *1791:C 4.53396e-05
52 *1791:B *396:215 1.5996e-05
53 *386:8 *390:118 4.77719e-05
54 *386:25 *390:149 0
55 *386:25 *416:126 0
56 *386:29 *416:126 0
57 *386:33 *416:126 0
58 *386:43 *1765:C 1.68186e-05
59 *386:43 *416:126 0.000319929
60 *386:88 *1771:C 1.50383e-05
61 *386:107 *396:123 0.000261572
62 *386:107 *396:133 6.23541e-06
63 *386:107 *416:124 0
64 *386:107 *416:126 0
65 *386:116 *396:133 5.49968e-05
66 *386:144 *1775:C 3.26889e-05
67 *386:144 *396:158 1.14169e-05
68 *386:144 *412:47 4.77719e-05
69 *386:144 *412:53 2.82992e-05
70 *386:144 *416:124 0
71 *386:148 *1777:A 4.44873e-05
72 *386:148 *1777:C 5.53243e-05
73 *386:170 *1777:A 1.91597e-05
74 *386:170 *1780:C 5.88634e-05
75 *386:170 *1787:B 0.000214949
76 *386:170 *387:53 0.000115614
77 *386:170 *387:62 0.000191164
78 *386:170 *387:77 0.000148789
79 *386:170 *387:86 0.000148664
80 *386:170 *387:99 0.000189217
81 *386:170 *387:108 0.000126569
82 *386:170 *390:149 0.000491469
83 *386:170 *396:202 0
84 *386:170 *396:206 1.42807e-05
85 *386:170 *397:30 2.33681e-05
86 *386:170 *400:162 0.000183929
87 *386:170 *412:39 0.000187449
88 *386:170 *412:47 7.37606e-05
89 *386:170 *416:124 0
90 *386:183 *396:206 8.40388e-05
91 *386:183 *400:162 0
92 *386:198 *396:206 2.78196e-05
93 *386:198 *396:215 0.000101485
94 *1766:D_N *1766:B 0.000146757
95 *1767:D_N *1767:B 0.000119762
96 *1767:D_N *386:43 0.000234181
97 *1769:D_N *1769:B 0.000157282
98 *1770:D_N *1770:B 0.000112887
99 *1774:D_N *1774:B 3.71082e-05
100 *1774:D_N *386:116 4.11251e-05
101 *1774:D_N *386:129 0.000167424
102 *1774:D_N *386:144 0.000131602
103 *1777:D_N *386:170 4.66108e-05
104 *1778:D_N *386:170 0.000216304
105 *1779:D_N *386:170 0.000265549
106 *1787:D_N *386:170 1.92979e-05
107 *1788:D_N *1788:B 0.00015639
108 *1790:D_N *1790:B 0.00015639
109 *1880:D *1766:B 0.000133657
110 *1887:D *1770:B 0.00023806
111 *1893:D *1774:B 4.11718e-05
112 *1893:D *386:144 2.58642e-05
113 *1893:D *386:148 5.83121e-06
114 *1976:A *386:25 3.93395e-05
115 *1976:A *386:88 0.000131933
116 *1976:A *386:107 0.000132396
117 *237:14 *1766:B 2.0514e-05
118 *237:14 *386:25 9.46476e-05
119 *237:14 *386:29 8.88971e-05
120 *237:14 *386:33 0.000231564
121 *237:14 *386:107 0.000353455
122 *237:14 *386:116 0.000208484
123 *237:14 *386:129 0.00018305
124 *237:14 *386:144 3.33831e-06
125 *237:16 *386:170 4.05289e-05
*RES
1 *1972:X *386:8 2.665 
2 *386:8 *1771:B 8.465 
3 *386:8 *386:23 2 
4 *386:23 *386:25 2.655 
5 *386:25 *386:29 2.595 
6 *386:29 *386:33 4.655 
7 *386:33 *386:43 10.3 
8 *386:43 *1766:B 6.745 
9 *386:43 *1765:B 1.6 
10 *386:33 *1767:B 4.045 
11 *386:29 *1768:B 3.6 
12 *386:25 *1769:B 5.775 
13 *386:23 *386:88 1.635 
14 *386:88 *1770:B 6.495 
15 *386:88 *386:107 6.525 
16 *386:107 *1773:B 3.6 
17 *386:107 *386:116 2.4 
18 *386:116 *1772:B 5.43 
19 *386:116 *386:129 4.145 
20 *386:129 *1775:B 1.6 
21 *386:129 *386:144 7.555 
22 *386:144 *386:148 2.01 
23 *386:148 *386:170 35.205 
24 *386:170 *1788:B 6.135 
25 *386:170 *386:183 1.89 
26 *386:183 *1789:B 4.77 
27 *386:183 *386:198 2.91 
28 *386:198 *1790:B 5.775 
29 *386:198 *1791:B 6.15 
30 *386:148 *1777:B 1.6 
31 *386:144 *1774:B 4.99 
*END

*D_NET *387 0.0070556
*CONN
*I *1778:B I *D sky130_fd_sc_hd__nor4b_1
*I *1787:B I *D sky130_fd_sc_hd__nor4b_1
*I *1786:B I *D sky130_fd_sc_hd__nor4b_1
*I *1785:B I *D sky130_fd_sc_hd__nor4b_1
*I *1784:B I *D sky130_fd_sc_hd__nor4b_1
*I *1783:B I *D sky130_fd_sc_hd__nor4b_1
*I *1782:B I *D sky130_fd_sc_hd__nor4b_1
*I *1781:B I *D sky130_fd_sc_hd__nor4b_1
*I *1780:B I *D sky130_fd_sc_hd__nor4b_1
*I *1779:B I *D sky130_fd_sc_hd__nor4b_1
*I *1776:B I *D sky130_fd_sc_hd__nor4b_1
*I *1973:X O *D sky130_fd_sc_hd__buf_2
*CAP
1 *1778:B 6.68095e-05
2 *1787:B 6.75548e-05
3 *1786:B 0.000159555
4 *1785:B 0
5 *1784:B 0.00014324
6 *1783:B 0
7 *1782:B 0.000127831
8 *1781:B 0
9 *1780:B 0
10 *1779:B 0
11 *1776:B 0.000211382
12 *1973:X 0
13 *387:108 0.000266257
14 *387:99 9.914e-05
15 *387:86 0.000245628
16 *387:77 9.08121e-05
17 *387:62 0.00023237
18 *387:53 0.000109472
19 *387:47 0.000253775
20 *387:38 0.000176478
21 *387:10 0.000308252
22 *387:4 0.000139733
23 *1776:B *1776:A 0.000262727
24 *1776:B *1983:A 9.76407e-06
25 *1776:B *400:162 1.06624e-05
26 *1778:B *1778:C 0.000188891
27 *1778:B *1780:A 0.000146408
28 *1782:B *1782:C 6.32792e-05
29 *1782:B *412:39 0.000119762
30 *1784:B *1784:C 2.61093e-05
31 *1786:B *1786:C 4.01811e-05
32 *1787:B *1787:C 0.000156842
33 *1787:B *397:100 7.4027e-05
34 *387:10 *1779:A 3.41304e-05
35 *387:10 *1779:C 3.26889e-05
36 *387:10 *1780:C 0.000158435
37 *387:10 *1973:A 0
38 *387:38 *1780:C 0.000113572
39 *387:38 *416:124 0.000113572
40 *387:47 *1780:A 0.000174552
41 *387:53 *1778:C 0
42 *387:53 *397:30 9.50342e-06
43 *387:53 *397:43 0.000110683
44 *387:62 *397:43 9.50342e-06
45 *387:62 *397:52 0.000197298
46 *387:77 *397:52 9.50342e-06
47 *387:77 *397:67 0.00015212
48 *387:86 *397:67 9.50342e-06
49 *387:86 *397:76 0.000152821
50 *387:99 *397:76 5.02905e-05
51 *387:99 *397:91 0.00015201
52 *387:108 *397:91 9.50342e-06
53 *387:108 *397:100 0.000131408
54 *1778:D_N *1776:B 0.000179857
55 *1779:D_N *387:10 4.82299e-05
56 *1784:D_N *1784:B 0.000118081
57 *1786:D_N *1786:B 0.000118081
58 *1896:D *1778:B 1.41165e-05
59 *237:16 *1776:B 2.42236e-05
60 *386:170 *1787:B 0.000214949
61 *386:170 *387:53 0.000115614
62 *386:170 *387:62 0.000191164
63 *386:170 *387:77 0.000148789
64 *386:170 *387:86 0.000148664
65 *386:170 *387:99 0.000189217
66 *386:170 *387:108 0.000126569
*RES
1 *1973:X *387:4 1.6 
2 *387:4 *387:10 2.55 
3 *387:10 *1776:B 10.295 
4 *387:10 *1779:B 1.6 
5 *387:4 *387:38 5.38 
6 *387:38 *1780:B 1.6 
7 *387:38 *387:47 2.445 
8 *387:47 *387:53 3.74 
9 *387:53 *1781:B 3.6 
10 *387:53 *387:62 2.4 
11 *387:62 *1782:B 6.15 
12 *387:62 *387:77 1.89 
13 *387:77 *1783:B 3.6 
14 *387:77 *387:86 1.89 
15 *387:86 *1784:B 5.79 
16 *387:86 *387:99 2.4 
17 *387:99 *1785:B 3.6 
18 *387:99 *387:108 1.635 
19 *387:108 *1786:B 6.15 
20 *387:108 *1787:B 6.255 
21 *387:47 *1778:B 3.79 
*END

*D_NET *388 0.017686
*CONN
*I *1793:B I *D sky130_fd_sc_hd__nor4b_1
*I *1797:B I *D sky130_fd_sc_hd__nor4b_1
*I *1820:B I *D sky130_fd_sc_hd__nor4b_1
*I *1818:B I *D sky130_fd_sc_hd__nor4b_1
*I *1819:B I *D sky130_fd_sc_hd__nor4b_1
*I *1804:B I *D sky130_fd_sc_hd__nor4b_1
*I *1803:B I *D sky130_fd_sc_hd__nor4b_1
*I *1802:B I *D sky130_fd_sc_hd__nor4b_1
*I *1801:B I *D sky130_fd_sc_hd__nor4b_1
*I *1800:B I *D sky130_fd_sc_hd__nor4b_1
*I *1799:B I *D sky130_fd_sc_hd__nor4b_1
*I *1798:B I *D sky130_fd_sc_hd__nor4b_1
*I *1796:B I *D sky130_fd_sc_hd__nor4b_1
*I *1795:B I *D sky130_fd_sc_hd__nor4b_1
*I *1794:B I *D sky130_fd_sc_hd__nor4b_1
*I *1792:B I *D sky130_fd_sc_hd__nor4b_1
*I *1974:X O *D sky130_fd_sc_hd__buf_4
*CAP
1 *1793:B 0
2 *1797:B 0
3 *1820:B 0.000127767
4 *1818:B 0
5 *1819:B 6.03616e-05
6 *1804:B 2.28814e-05
7 *1803:B 0
8 *1802:B 0.000140471
9 *1801:B 5.53777e-05
10 *1800:B 7.42206e-05
11 *1799:B 5.85211e-05
12 *1798:B 0.000146597
13 *1796:B 0.000113431
14 *1795:B 0
15 *1794:B 0.000137191
16 *1792:B 0.000264236
17 *1974:X 0.0001542
18 *388:218 0.000406679
19 *388:193 0.00114005
20 *388:168 0.000990727
21 *388:155 0.000261338
22 *388:134 0.000332237
23 *388:119 0.000241199
24 *388:102 0.000354913
25 *388:89 0.000359423
26 *388:81 0.000232634
27 *388:68 0.000364272
28 *388:53 0.000290339
29 *388:40 0.000158293
30 *388:27 0.000288488
31 *388:10 0.000340567
32 *388:8 0.0001542
33 *1792:B *1984:A 0.000184989
34 *1792:B *398:16 9.50342e-06
35 *1792:B *400:166 1.08758e-05
36 *1794:B *1794:C 2.75668e-05
37 *1796:B *1796:C 2.75668e-05
38 *1798:B *1798:C 0.000158532
39 *1798:B *414:17 4.11611e-05
40 *1799:B *1797:C 3.83194e-05
41 *1799:B *416:10 6.1357e-05
42 *1800:B *1800:A 4.66108e-05
43 *1800:B *398:101 2.3256e-05
44 *1800:B *398:118 4.27783e-05
45 *1800:B *414:93 1.23763e-05
46 *1801:B *1801:A 4.66108e-05
47 *1801:B *1801:C 6.53632e-05
48 *1802:B *398:137 0.000118081
49 *1802:B *414:110 1.17976e-05
50 *1802:B *414:122 1.24578e-05
51 *1804:B *1804:A 4.66742e-05
52 *1804:B *398:168 4.82863e-05
53 *1819:B *1819:A 7.11965e-05
54 *1819:B *1819:C 0.00011777
55 *1820:B *1820:A 0.000275996
56 *1820:B *1820:C 0.000333929
57 *1820:B *414:165 0
58 *388:8 *1793:A 2.68989e-05
59 *388:8 *398:10 5.58436e-05
60 *388:27 *398:16 0.000139245
61 *388:40 *398:16 7.30547e-05
62 *388:40 *398:24 0.000134249
63 *388:40 *398:41 2.97802e-05
64 *388:53 *398:41 0.000140413
65 *388:68 *398:41 4.28794e-05
66 *388:68 *398:56 0.000315344
67 *388:81 *414:17 6.33103e-05
68 *388:89 *1797:C 0.000107354
69 *388:89 *414:21 8.30853e-06
70 *388:102 *1797:C 2.43962e-05
71 *388:102 *398:118 2.63889e-05
72 *388:119 *398:118 0.000298821
73 *388:134 *1804:A 0
74 *388:134 *398:118 3.09233e-05
75 *388:134 *398:137 0.000129742
76 *388:155 *414:126 4.49987e-05
77 *388:168 *1804:A 5.19038e-05
78 *388:168 *414:126 6.55601e-05
79 *388:168 *414:144 5.38986e-06
80 *388:193 *1804:A 3.50152e-06
81 *388:193 *1805:B 0.000248254
82 *388:193 *389:28 9.14049e-05
83 *388:193 *389:41 0.000223122
84 *388:193 *389:50 0.000363734
85 *388:193 *389:59 0.000183366
86 *388:193 *389:74 0.000181931
87 *388:193 *389:83 0.000182342
88 *388:193 *389:107 0.000184703
89 *388:193 *389:120 5.16348e-05
90 *388:193 *398:168 1.08758e-05
91 *388:193 *415:126 2.20014e-05
92 *388:218 *1819:A 8.23457e-05
93 *388:218 *1820:C 9.50342e-06
94 *388:218 *389:120 7.23602e-05
95 *388:218 *389:137 0.000170191
96 *388:218 *415:126 0
97 *1793:D_N *388:8 0.000160314
98 *1794:D_N *1794:B 0.000119762
99 *1796:D_N *1796:B 8.40269e-05
100 *1821:A *388:193 0.000192837
101 *1821:A *388:218 9.09788e-06
102 *1914:CLK *388:81 3.00454e-05
103 *1914:D *388:81 1.41165e-05
104 *1915:D *1799:B 4.66108e-05
105 *1921:D *388:168 8.23457e-05
106 *2002:A *1799:B 4.66108e-05
107 *2002:A *388:89 2.92496e-05
108 *2002:A *388:102 0.000199908
109 *137:17 *388:218 0.000494712
110 *237:16 *1792:B 9.42224e-05
111 *237:16 *1800:B 2.05571e-05
112 *237:16 *388:40 7.18895e-05
113 *237:16 *388:53 0.000108461
114 *237:16 *388:68 0.000357483
115 *237:16 *388:89 5.64811e-05
116 *237:16 *388:102 1.27504e-05
117 *237:16 *388:119 0.00031628
118 *237:16 *388:134 0.00020934
119 *237:16 *388:155 2.25106e-05
120 *237:16 *388:193 0.00173902
121 *237:16 *388:218 0.00011214
122 *363:16 *388:193 5.54551e-05
123 *369:10 *388:102 0
124 *369:95 *388:134 0
*RES
1 *1974:X *388:8 4.39 
2 *388:8 *388:10 2 
3 *388:10 *1792:B 8.295 
4 *388:10 *388:27 1.635 
5 *388:27 *1794:B 5.79 
6 *388:27 *388:40 2.4 
7 *388:40 *1795:B 3.6 
8 *388:40 *388:53 2.445 
9 *388:53 *1796:B 5.445 
10 *388:53 *388:68 6.185 
11 *388:68 *1798:B 4.135 
12 *388:68 *388:81 2.1 
13 *388:81 *388:89 4.445 
14 *388:89 *1799:B 5.085 
15 *388:89 *388:102 3.4875 
16 *388:102 *1800:B 5.3475 
17 *388:102 *388:119 3.8025 
18 *388:119 *1801:B 4.755 
19 *388:119 *388:134 2.9775 
20 *388:134 *1802:B 6.0375 
21 *388:134 *388:155 1.8075 
22 *388:155 *1803:B 3.6 
23 *388:155 *388:168 5.285 
24 *388:168 *1804:B 2.395 
25 *388:168 *388:193 30.45 
26 *388:193 *1819:B 5.565 
27 *388:193 *388:218 11.125 
28 *388:218 *1818:B 3.6 
29 *388:218 *1820:B 7.785 
30 *388:81 *1797:B 1.6 
31 *388:8 *1793:B 1.6 
*END

*D_NET *389 0.00961326
*CONN
*I *1816:B I *D sky130_fd_sc_hd__nor4b_1
*I *1817:B I *D sky130_fd_sc_hd__nor4b_1
*I *1815:B I *D sky130_fd_sc_hd__nor4b_1
*I *1814:B I *D sky130_fd_sc_hd__nor4b_1
*I *1811:B I *D sky130_fd_sc_hd__nor4b_1
*I *1813:B I *D sky130_fd_sc_hd__nor4b_1
*I *1812:B I *D sky130_fd_sc_hd__nor4b_1
*I *1809:B I *D sky130_fd_sc_hd__nor4b_1
*I *1810:B I *D sky130_fd_sc_hd__nor4b_1
*I *1808:B I *D sky130_fd_sc_hd__nor4b_1
*I *1807:B I *D sky130_fd_sc_hd__nor4b_1
*I *1805:B I *D sky130_fd_sc_hd__nor4b_1
*I *1806:B I *D sky130_fd_sc_hd__nor4b_1
*I *1975:X O *D sky130_fd_sc_hd__clkbuf_4
*CAP
1 *1816:B 0.000225213
2 *1817:B 0.000207881
3 *1815:B 6.85824e-05
4 *1814:B 0
5 *1811:B 0.000112902
6 *1813:B 6.70982e-05
7 *1812:B 0
8 *1809:B 0.000160854
9 *1810:B 0
10 *1808:B 0
11 *1807:B 7.52108e-05
12 *1805:B 0.000187309
13 *1806:B 2.89361e-05
14 *1975:X 0.000154342
15 *389:137 0.000522205
16 *389:120 0.000317771
17 *389:107 0.000221122
18 *389:87 0.000197801
19 *389:83 0.000150118
20 *389:74 0.000133857
21 *389:59 0.000278796
22 *389:50 0.000144844
23 *389:41 0.000163428
24 *389:28 0.00018216
25 *389:15 0.000220314
26 *389:6 0.000183278
27 *1805:B *1805:A 0.00014862
28 *1805:B *415:12 5.18694e-05
29 *1806:B *1806:C 1.85674e-05
30 *1807:B *456:DIODE 1.41165e-05
31 *1807:B *1807:A 2.05056e-05
32 *1807:B *1807:C 7.91111e-05
33 *1807:B *414:144 0.000118081
34 *1809:B *399:74 6.89801e-05
35 *1811:B *1811:C 2.61093e-05
36 *1811:B *399:103 3.59784e-05
37 *1811:B *415:85 0.000153816
38 *1813:B *1813:A 9.00196e-05
39 *1813:B *1813:C 2.68464e-05
40 *1813:B *399:103 6.03315e-05
41 *1813:B *415:85 1.91597e-05
42 *1815:B *399:126 1.08758e-05
43 *1815:B *399:141 2.10279e-05
44 *1816:B *1816:C 0.000223637
45 *1817:B *1816:C 0.000130086
46 *1817:B *1817:A 1.52352e-05
47 *1817:B *1817:C 4.01749e-05
48 *389:6 *1985:A 6.57665e-06
49 *389:28 *415:12 8.20052e-05
50 *389:41 *415:10 4.86642e-05
51 *389:41 *415:12 4.08545e-05
52 *389:41 *415:43 0.000135767
53 *389:41 *415:52 8.7152e-06
54 *389:50 *415:52 0.000342362
55 *389:50 *415:61 9.09788e-06
56 *389:59 *415:61 0.000168065
57 *389:74 *415:61 0.000169562
58 *389:74 *415:70 9.09788e-06
59 *389:83 *415:70 0.000105222
60 *389:83 *415:107 7.19286e-05
61 *389:87 *1811:C 0
62 *389:107 *414:144 0
63 *389:107 *415:107 0.000146872
64 *389:120 *414:144 0
65 *1805:D_N *1805:B 6.33103e-05
66 *1806:D_N *389:6 5.03424e-05
67 *1807:D_N *1807:B 0.000119762
68 *1821:A *389:120 0.000130669
69 *1933:CLK *1816:B 5.12969e-06
70 *1934:D *1816:B 4.89295e-05
71 *1949:A *1805:B 0.000108857
72 *137:17 *389:120 5.27885e-05
73 *237:16 *389:120 0.000171436
74 *237:16 *389:137 0.000177932
75 *363:16 *1805:B 9.09788e-06
76 *388:193 *1805:B 0.000248254
77 *388:193 *389:28 9.14049e-05
78 *388:193 *389:41 0.000223122
79 *388:193 *389:50 0.000363734
80 *388:193 *389:59 0.000183366
81 *388:193 *389:74 0.000181931
82 *388:193 *389:83 0.000182342
83 *388:193 *389:107 0.000184703
84 *388:193 *389:120 5.16348e-05
85 *388:218 *389:120 7.23602e-05
86 *388:218 *389:137 0.000170191
*RES
1 *1975:X *389:6 3.43 
2 *389:6 *1806:B 2.215 
3 *389:6 *389:15 2 
4 *389:15 *1805:B 8.34 
5 *389:15 *389:28 1.125 
6 *389:28 *1807:B 5.79 
7 *389:28 *389:41 2.655 
8 *389:41 *1808:B 3.6 
9 *389:41 *389:50 4.185 
10 *389:50 *1810:B 3.6 
11 *389:50 *389:59 2.145 
12 *389:59 *1809:B 6.15 
13 *389:59 *389:74 2.145 
14 *389:74 *1812:B 3.6 
15 *389:74 *389:83 2.145 
16 *389:83 *389:87 2.36 
17 *389:87 *1813:B 3.43 
18 *389:87 *1811:B 4.15 
19 *389:83 *389:107 2.145 
20 *389:107 *1814:B 3.6 
21 *389:107 *389:120 3.975 
22 *389:120 *1815:B 4.77 
23 *389:120 *389:137 4.145 
24 *389:137 *1817:B 4.39 
25 *389:137 *1816:B 5.44 
*END

*D_NET *390 0.0315089
*CONN
*I *429:DIODE I *D sky130_fd_sc_hd__diode_2
*I *432:DIODE I *D sky130_fd_sc_hd__diode_2
*I *1975:A I *D sky130_fd_sc_hd__clkbuf_4
*I *431:DIODE I *D sky130_fd_sc_hd__diode_2
*I *1974:A I *D sky130_fd_sc_hd__buf_4
*I *430:DIODE I *D sky130_fd_sc_hd__diode_2
*I *1973:A I *D sky130_fd_sc_hd__buf_2
*I *1972:A I *D sky130_fd_sc_hd__buf_4
*I *1970:A I *D sky130_fd_sc_hd__buf_4
*I *1971:A I *D sky130_fd_sc_hd__clkbuf_4
*I *428:DIODE I *D sky130_fd_sc_hd__diode_2
*I *1968:A I *D sky130_fd_sc_hd__buf_4
*I *425:DIODE I *D sky130_fd_sc_hd__diode_2
*I *426:DIODE I *D sky130_fd_sc_hd__diode_2
*I *1969:A I *D sky130_fd_sc_hd__clkbuf_4
*I *427:DIODE I *D sky130_fd_sc_hd__diode_2
*I *1976:X O *D sky130_fd_sc_hd__clkbuf_4
*CAP
1 *429:DIODE 0
2 *432:DIODE 0.000100674
3 *1975:A 0
4 *431:DIODE 0.000197548
5 *1974:A 2.11983e-05
6 *430:DIODE 0
7 *1973:A 7.36906e-05
8 *1972:A 0
9 *1970:A 1.88253e-05
10 *1971:A 0.000110011
11 *428:DIODE 6.52939e-05
12 *1968:A 0.00015853
13 *425:DIODE 0
14 *426:DIODE 0
15 *1969:A 0.000414599
16 *427:DIODE 6.13874e-05
17 *1976:X 0.000368395
18 *390:195 0.0014021
19 *390:180 0.00167939
20 *390:169 0.00162791
21 *390:153 0.000101384
22 *390:149 0.00255505
23 *390:118 0.00141947
24 *390:114 0.000422918
25 *390:45 0.000532462
26 *390:43 0.000328651
27 *390:37 0.00253537
28 *390:35 0.00241403
29 *390:33 0.000543913
30 *390:20 0.000477422
31 *390:16 0.000795351
32 *390:14 0.00108462
33 *432:DIODE *1985:A 7.23635e-05
34 *432:DIODE *398:168 0.000162325
35 *432:DIODE *414:144 9.09788e-06
36 *1969:A *391:10 4.84487e-05
37 *1969:A *392:18 7.14511e-05
38 *390:14 *412:59 0
39 *390:14 *412:61 0
40 *390:33 *405:89 0
41 *390:33 *405:96 0
42 *390:35 *405:70 0
43 *390:35 *405:77 0
44 *390:35 *405:89 0
45 *390:37 *1850:RESET_B 0
46 *390:37 *1866:RESET_B 0
47 *390:37 *404:130 0
48 *390:37 *404:137 0
49 *390:37 *404:148 0
50 *390:37 *405:23 0
51 *390:37 *405:30 0
52 *390:37 *405:42 0
53 *390:37 *405:49 0
54 *390:37 *405:56 0
55 *390:37 *405:63 0
56 *390:43 *1848:RESET_B 0
57 *390:43 *1850:RESET_B 0
58 *390:149 *1771:A 1.87271e-05
59 *390:149 *400:162 4.92206e-05
60 *390:149 *412:47 5.88147e-05
61 *390:149 *416:124 0.000359965
62 *390:149 *416:126 0.000311024
63 *390:169 *400:162 0.000914938
64 *390:169 *400:200 0
65 *390:180 *400:200 0
66 *390:195 *1985:A 8.40269e-05
67 *390:195 *400:200 0.00109206
68 *390:195 *414:10 0
69 *390:195 *414:87 0
70 *390:195 *416:39 0.000433325
71 *1733:D_N *1969:A 1.9872e-05
72 *1771:B *390:118 4.10688e-05
73 *1771:B *390:149 0.000120269
74 *1779:D_N *1973:A 8.40213e-05
75 *1779:D_N *390:153 1.34594e-05
76 *1793:D_N *1974:A 4.82919e-05
77 *1794:D_N *431:DIODE 0.000108788
78 *1806:D_N *432:DIODE 8.40213e-05
79 *1806:D_N *390:195 8.40269e-05
80 *1847:D *1969:A 6.0114e-05
81 *1847:D *390:43 2.20732e-05
82 *1847:D *390:45 4.65196e-05
83 *1849:CLK *1968:A 0.000123285
84 *1849:D *1968:A 2.54522e-05
85 *1851:CLK *390:37 0.000398941
86 *1851:CLK *390:43 8.53113e-06
87 *1852:CLK *390:37 0
88 *1854:D *390:37 3.23391e-05
89 *1856:D *390:37 0.000409826
90 *1858:D *390:37 0.000106665
91 *1869:CLK *390:37 0.000185405
92 *1870:CLK *390:37 0.000140912
93 *1870:D *390:37 0.000121102
94 *1873:D *428:DIODE 8.23457e-05
95 *1875:CLK *1971:A 4.82919e-05
96 *1875:D *1971:A 8.84306e-05
97 *1877:D *427:DIODE 8.35068e-05
98 *1877:D *390:33 8.49205e-05
99 *1878:CLK *390:20 0.000143266
100 *1879:CLK *390:16 4.43871e-06
101 *1879:CLK *390:20 0.000225068
102 *1879:CLK *390:33 0.000332049
103 *1879:CLK *390:35 9.54399e-05
104 *1879:D *1970:A 4.82863e-05
105 *1879:D *390:20 4.66526e-05
106 *1880:D *390:16 7.47145e-05
107 *1881:D *390:16 4.76581e-05
108 *1886:CLK *390:14 0.00011379
109 *1966:A *390:149 0
110 *361:18 *390:14 0.000119242
111 *361:18 *390:149 4.30907e-05
112 *374:110 *390:43 0.000271327
113 *375:12 *390:35 0.000233231
114 *375:14 *390:35 6.61904e-05
115 *375:14 *390:37 7.23533e-05
116 *375:16 *390:37 0.000233231
117 *376:10 *390:37 0.000141592
118 *376:14 *390:37 0.00105723
119 *376:43 *390:37 0.000545256
120 *376:71 *390:37 0.000183043
121 *377:12 *390:37 0
122 *377:73 *390:20 5.16418e-05
123 *379:25 *390:14 4.9968e-05
124 *380:12 *1970:A 7.00889e-06
125 *380:12 *390:16 0.000127705
126 *380:25 *390:16 0.000196243
127 *380:38 *390:16 0.000143266
128 *380:51 *390:16 0.000206137
129 *380:62 *390:16 0.000222061
130 *386:8 *390:118 4.77719e-05
131 *386:25 *390:149 0
132 *386:170 *390:149 0.000491469
133 *387:10 *1973:A 0
*RES
1 *1976:X *390:14 9.48 
2 *390:14 *390:16 12.855 
3 *390:16 *390:20 6.695 
4 *390:20 *427:DIODE 2.395 
5 *390:20 *390:33 7.07 
6 *390:33 *390:35 4.44 
7 *390:35 *390:37 48.81 
8 *390:37 *390:43 5.96 
9 *390:43 *390:45 1.485 
10 *390:45 *1969:A 11.135 
11 *390:45 *426:DIODE 1.6 
12 *390:43 *425:DIODE 1.6 
13 *390:37 *1968:A 6.06 
14 *390:35 *428:DIODE 4.395 
15 *390:33 *1971:A 5.43 
16 *390:16 *1970:A 4.05 
17 *390:14 *390:114 3.5 
18 *390:114 *390:118 4.95 
19 *390:118 *1972:A 1.6 
20 *390:118 *390:149 29.685 
21 *390:149 *390:153 2.45 
22 *390:153 *1973:A 3.01 
23 *390:153 *430:DIODE 1.6 
24 *390:149 *390:169 28.155 
25 *390:169 *1974:A 4.05 
26 *390:169 *390:180 2.91 
27 *390:180 *431:DIODE 6.12 
28 *390:180 *390:195 28.4 
29 *390:195 *1975:A 1.6 
30 *390:195 *432:DIODE 8.285 
31 *390:114 *429:DIODE 1.6 
*END

*D_NET *391 0.0163152
*CONN
*I *1736:C I *D sky130_fd_sc_hd__nor4b_1
*I *1721:C I *D sky130_fd_sc_hd__nor4b_1
*I *1722:C I *D sky130_fd_sc_hd__nor4b_1
*I *1720:C I *D sky130_fd_sc_hd__nor4b_1
*I *1717:C I *D sky130_fd_sc_hd__nor4b_1
*I *1719:C I *D sky130_fd_sc_hd__nor4b_1
*I *1715:C I *D sky130_fd_sc_hd__nor4b_1
*I *1716:C I *D sky130_fd_sc_hd__nor4b_1
*I *1714:C I *D sky130_fd_sc_hd__nor4b_1
*I *1713:C I *D sky130_fd_sc_hd__nor4b_1
*I *1711:C I *D sky130_fd_sc_hd__nor4b_1
*I *1709:C I *D sky130_fd_sc_hd__nor4b_1
*I *1710:C I *D sky130_fd_sc_hd__nor4b_1
*I *1708:C I *D sky130_fd_sc_hd__nor4b_1
*I *1712:C I *D sky130_fd_sc_hd__nor4b_1
*I *1718:C I *D sky130_fd_sc_hd__nor4b_1
*I *1977:X O *D sky130_fd_sc_hd__buf_4
*CAP
1 *1736:C 0.000258347
2 *1721:C 0
3 *1722:C 0.00020211
4 *1720:C 0.000153659
5 *1717:C 5.52728e-05
6 *1719:C 0.000109484
7 *1715:C 1.36534e-05
8 *1716:C 9.75243e-05
9 *1714:C 0
10 *1713:C 8.7874e-05
11 *1711:C 2.36682e-05
12 *1709:C 5.00807e-05
13 *1710:C 7.59082e-05
14 *1708:C 5.51588e-05
15 *1712:C 0
16 *1718:C 0
17 *1977:X 6.83655e-05
18 *391:183 0.000270114
19 *391:105 0.000111542
20 *391:72 0.00023429
21 *391:70 0.000257321
22 *391:68 0.000488974
23 *391:57 0.000471509
24 *391:53 0.000231863
25 *391:49 0.000311472
26 *391:43 0.00013187
27 *391:39 0.000303293
28 *391:33 0.000255132
29 *391:29 0.000318852
30 *391:20 0.000412408
31 *391:10 0.00241231
32 *391:8 0.00236818
33 *1736:C *416:165 0.000234973
34 *391:8 *400:26 5.92191e-05
35 *391:10 *435:DIODE 5.20968e-05
36 *391:10 *1724:C 5.53883e-05
37 *391:10 *392:30 0
38 *391:10 *400:26 0.000137414
39 *391:10 *416:173 0.000134379
40 *1708:A *1708:C 0.000123955
41 *1710:A *1710:C 2.74886e-05
42 *1710:D_N *1708:C 0.000122797
43 *1710:D_N *1710:C 0.000160641
44 *1712:B *391:57 0.000156468
45 *1712:D_N *391:68 0
46 *1713:A *1713:C 0.000129514
47 *1713:B *1713:C 0.000145076
48 *1713:D_N *1711:C 0.000122797
49 *1713:D_N *1713:C 3.24882e-05
50 *1713:D_N *391:68 0
51 *1715:A *1715:C 4.66108e-05
52 *1716:B *1715:C 4.66108e-05
53 *1716:D_N *1716:C 3.83041e-05
54 *1716:D_N *391:39 1.7635e-05
55 *1716:D_N *391:43 0.000128075
56 *1716:D_N *391:49 0.000139238
57 *1716:D_N *391:53 4.82919e-05
58 *1717:A *1717:C 2.15271e-05
59 *1717:B *1717:C 5.46691e-05
60 *1718:A *1722:C 2.61042e-05
61 *1718:A *391:20 0.00031546
62 *1718:B *391:20 2.86975e-05
63 *1718:B *391:29 4.35931e-05
64 *1718:D_N *391:20 1.16578e-05
65 *1719:B *1719:C 0.00012182
66 *1719:B *391:39 8.23457e-05
67 *1719:D_N *391:33 0.000147337
68 *1719:D_N *391:39 0.000228515
69 *1720:B *1720:C 5.85085e-05
70 *1720:B *391:29 1.56428e-05
71 *1720:D_N *1720:C 2.75229e-05
72 *1720:D_N *391:20 0
73 *1720:D_N *391:33 4.36573e-06
74 *1722:B *1722:C 1.41165e-05
75 *1723:D_N *391:10 0
76 *1724:B *391:10 4.99524e-05
77 *1736:A *1736:C 8.77498e-05
78 *1736:B *1736:C 1.52352e-05
79 *1736:D_N *1736:C 1.19928e-05
80 *1822:D *1710:C 0.000303019
81 *1823:D *1709:C 2.68464e-05
82 *1825:D *1713:C 1.05984e-05
83 *1828:CLK *1716:C 1.20052e-05
84 *1828:D *1716:C 6.35284e-05
85 *1828:D *391:53 2.59926e-05
86 *1832:CLK *1720:C 8.50369e-06
87 *1832:D *1720:C 1.08153e-05
88 *1834:D *1720:C 5.12969e-06
89 *1835:D *1722:C 0.000310896
90 *1969:A *391:10 4.84487e-05
91 *381:6 *1736:C 1.46744e-05
92 *381:18 *1722:C 0
93 *381:18 *391:10 0
94 *381:28 *1722:C 0.000157041
95 *381:46 *1722:C 0.000151541
96 *381:56 *391:39 0
97 *381:56 *391:43 6.85608e-05
98 *381:58 *391:43 4.43871e-06
99 *381:58 *391:49 7.63125e-05
100 *381:92 *391:70 2.61813e-05
101 *381:96 *1708:C 2.43962e-05
102 *381:96 *391:70 2.68016e-05
103 *381:96 *391:72 7.97845e-05
104 *381:120 *1709:C 7.08493e-05
105 *382:33 *1722:C 2.30258e-05
106 *382:33 *391:33 7.10377e-05
107 *382:35 *391:33 8.12102e-05
108 *382:35 *391:39 9.09788e-06
109 *382:37 *391:39 0.000242168
110 *382:39 *391:39 2.8531e-05
111 *382:49 *391:57 4.15689e-05
112 *382:49 *391:68 0.000543947
113 *382:49 *391:70 4.86642e-05
114 *382:51 *1711:C 6.5018e-05
115 *382:51 *1713:C 4.66108e-05
116 *382:88 *1713:C 0.00015896
117 *382:120 *391:53 7.25059e-05
*RES
1 *1977:X *391:8 4.98 
2 *391:8 *391:10 32.8725 
3 *391:10 *391:20 8.0075 
4 *391:20 *1718:C 1.6 
5 *391:20 *391:29 1.845 
6 *391:29 *391:33 3.89 
7 *391:33 *391:39 5.96 
8 *391:39 *391:43 3.635 
9 *391:43 *391:49 3.995 
10 *391:49 *391:53 2.535 
11 *391:53 *391:57 4.145 
12 *391:57 *1712:C 3.6 
13 *391:57 *391:68 7.62 
14 *391:68 *391:70 1.89 
15 *391:70 *391:72 1.89 
16 *391:72 *1708:C 5.355 
17 *391:72 *1710:C 6.48 
18 *391:70 *1709:C 4.74 
19 *391:68 *391:105 2 
20 *391:105 *1711:C 2.74 
21 *391:105 *1713:C 4.84 
22 *391:53 *1714:C 1.6 
23 *391:49 *1716:C 3.445 
24 *391:43 *1715:C 4.05 
25 *391:39 *1719:C 3.445 
26 *391:33 *1717:C 4.77 
27 *391:29 *1720:C 4.135 
28 *391:10 *391:183 1.1325 
29 *391:183 *1722:C 8.85 
30 *391:183 *1721:C 3.6 
31 *391:8 *1736:C 8.205 
*END

*D_NET *392 0.00852541
*CONN
*I *1735:A I *D sky130_fd_sc_hd__nor4b_1
*I *1734:A I *D sky130_fd_sc_hd__nor4b_1
*I *1733:A I *D sky130_fd_sc_hd__nor4b_1
*I *1732:A I *D sky130_fd_sc_hd__nor4b_1
*I *1731:A I *D sky130_fd_sc_hd__nor4b_1
*I *1730:A I *D sky130_fd_sc_hd__nor4b_1
*I *1729:A I *D sky130_fd_sc_hd__nor4b_1
*I *1728:A I *D sky130_fd_sc_hd__nor4b_1
*I *1727:A I *D sky130_fd_sc_hd__nor4b_1
*I *1726:A I *D sky130_fd_sc_hd__nor4b_1
*I *1725:A I *D sky130_fd_sc_hd__nor4b_1
*I *1723:A I *D sky130_fd_sc_hd__nor4b_1
*I *1724:A I *D sky130_fd_sc_hd__nor4b_1
*I *1978:X O *D sky130_fd_sc_hd__clkbuf_4
*CAP
1 *1735:A 0
2 *1734:A 0.000122681
3 *1733:A 0
4 *1732:A 6.78739e-05
5 *1731:A 0
6 *1730:A 6.78739e-05
7 *1729:A 0
8 *1728:A 0.000106773
9 *1727:A 0
10 *1726:A 0
11 *1725:A 0
12 *1723:A 7.01148e-05
13 *1724:A 0.000116706
14 *1978:X 0.000175548
15 *392:46 0.000254673
16 *392:42 0.000275807
17 *392:36 0.000372334
18 *392:30 0.000271907
19 *392:28 0.000301945
20 *392:26 0.000178906
21 *392:24 0.000248266
22 *392:22 0.000180392
23 *392:20 0.000248266
24 *392:18 0.000161827
25 *392:16 0.000288013
26 *392:14 0.000268184
27 *1723:A *1724:C 3.79606e-05
28 *1728:A *1728:C 6.844e-05
29 *1734:A *1734:C 0.000138243
30 *392:14 *393:6 0.00016031
31 *392:14 *393:10 1.08056e-05
32 *392:14 *416:173 0.000165136
33 *1723:B *1723:A 0.000154551
34 *1723:D_N *1723:A 9.09788e-06
35 *1725:B *392:46 3.01609e-05
36 *1725:D_N *1724:A 0.000146613
37 *1725:D_N *392:46 0.000153816
38 *1726:B *392:36 0.000153816
39 *1726:D_N *392:36 0.000154977
40 *1728:B *1728:A 0.00015639
41 *1730:B *1730:A 0.00015639
42 *1730:D_N *1730:A 0.000155497
43 *1732:B *1732:A 0.00015639
44 *1732:D_N *1732:A 0.000155497
45 *1734:B *1734:A 2.25898e-05
46 *1734:D_N *1734:A 8.5002e-05
47 *1735:B *392:14 9.09788e-06
48 *1735:B *392:16 0.000157762
49 *1735:B *392:18 6.42432e-05
50 *1735:D_N *392:14 0.000204462
51 *1838:D *1724:A 4.77719e-05
52 *1838:D *392:46 0.000183341
53 *1969:A *392:18 7.14511e-05
54 *381:18 *392:14 6.23541e-06
55 *382:18 *392:42 0.00035893
56 *383:8 *392:18 0.000104599
57 *383:10 *392:18 9.09788e-06
58 *383:10 *392:20 0.000150706
59 *383:12 *392:20 2.97802e-05
60 *383:12 *392:22 0.000169465
61 *383:14 *392:22 9.09788e-06
62 *383:14 *392:24 0.000150706
63 *383:16 *392:24 2.97802e-05
64 *383:16 *392:26 0.000169465
65 *383:18 *392:26 9.09788e-06
66 *383:18 *392:28 0.000181898
67 *383:18 *392:30 4.11119e-05
68 *383:20 *392:30 0.000127958
69 *383:22 *392:30 9.09788e-06
70 *383:22 *392:36 0.000128611
71 *383:24 *392:36 5.1875e-05
72 *391:10 *392:30 0
*RES
1 *1978:X *392:14 8.235 
2 *392:14 *392:16 1.89 
3 *392:16 *392:18 2.145 
4 *392:18 *392:20 2.145 
5 *392:20 *392:22 2.145 
6 *392:22 *392:24 2.145 
7 *392:24 *392:26 2.145 
8 *392:26 *392:28 2.145 
9 *392:28 *392:30 2.145 
10 *392:30 *392:36 5.975 
11 *392:36 *392:42 8.185 
12 *392:42 *392:46 2.19 
13 *392:46 *1724:A 4.255 
14 *392:46 *1723:A 7.49 
15 *392:42 *1725:A 1.6 
16 *392:36 *1726:A 1.6 
17 *392:30 *1727:A 3.6 
18 *392:28 *1728:A 5.79 
19 *392:26 *1729:A 3.6 
20 *392:24 *1730:A 5.43 
21 *392:22 *1731:A 3.6 
22 *392:20 *1732:A 5.43 
23 *392:18 *1733:A 3.6 
24 *392:16 *1734:A 6.405 
25 *392:14 *1735:A 3.6 
*END

*D_NET *393 0.00968407
*CONN
*I *1735:C I *D sky130_fd_sc_hd__nor4b_1
*I *1734:C I *D sky130_fd_sc_hd__nor4b_1
*I *1733:C I *D sky130_fd_sc_hd__nor4b_1
*I *1732:C I *D sky130_fd_sc_hd__nor4b_1
*I *1731:C I *D sky130_fd_sc_hd__nor4b_1
*I *1730:C I *D sky130_fd_sc_hd__nor4b_1
*I *1729:C I *D sky130_fd_sc_hd__nor4b_1
*I *1728:C I *D sky130_fd_sc_hd__nor4b_1
*I *1727:C I *D sky130_fd_sc_hd__nor4b_1
*I *1726:C I *D sky130_fd_sc_hd__nor4b_1
*I *1725:C I *D sky130_fd_sc_hd__nor4b_1
*I *1723:C I *D sky130_fd_sc_hd__nor4b_1
*I *1724:C I *D sky130_fd_sc_hd__nor4b_1
*I *1979:X O *D sky130_fd_sc_hd__clkbuf_4
*CAP
1 *1735:C 0
2 *1734:C 0.000174384
3 *1733:C 0
4 *1732:C 0.000177956
5 *1731:C 0
6 *1730:C 0.000172909
7 *1729:C 0
8 *1728:C 0.000152444
9 *1727:C 0
10 *1726:C 0.000178373
11 *1725:C 0.000164686
12 *1723:C 3.55506e-05
13 *1724:C 0.000244149
14 *1979:X 9.08458e-05
15 *393:32 0.000344723
16 *393:28 0.000319619
17 *393:26 0.00030048
18 *393:24 8.82244e-05
19 *393:22 0.000258775
20 *393:20 0.000110329
21 *393:18 0.000265131
22 *393:16 9.22225e-05
23 *393:14 0.000270178
24 *393:12 9.57462e-05
25 *393:10 0.00027435
26 *393:6 0.000127262
27 *1723:A *1724:C 3.79606e-05
28 *1723:B *393:32 0.000178321
29 *1724:B *1724:C 9.09788e-06
30 *1725:B *1725:C 0.000186316
31 *1726:B *1726:C 0.000188094
32 *1728:A *1728:C 6.844e-05
33 *1728:B *1728:C 1.41165e-05
34 *1730:B *1730:C 0.000188891
35 *1732:B *1732:C 0.000188891
36 *1734:A *1734:C 0.000138243
37 *1734:B *1734:C 1.06688e-05
38 *1735:B *393:10 0.000110683
39 *1735:B *393:12 0.000117832
40 *1735:D_N *393:6 0.000123955
41 *1838:CLK *1725:C 8.50369e-06
42 *1838:D *1725:C 1.16854e-05
43 *1839:D *1725:C 1.75875e-05
44 *1842:CLK *1728:C 8.50369e-06
45 *1842:D *1728:C 5.12969e-06
46 *1844:CLK *1730:C 1.20052e-05
47 *1848:CLK *1734:C 1.20052e-05
48 *381:18 *393:10 0.000139933
49 *381:18 *393:12 0.00022448
50 *381:18 *393:14 0.000141599
51 *381:18 *393:16 0.000226834
52 *381:18 *393:18 0.000141599
53 *381:18 *393:20 0.000226834
54 *381:18 *393:22 0.000187071
55 *381:18 *393:24 0.00018196
56 *381:18 *393:26 0.000141599
57 *381:18 *393:28 0.00035893
58 *381:18 *393:32 0.000176647
59 *383:8 *393:12 0.000108322
60 *383:8 *393:14 9.50342e-06
61 *383:10 *393:14 0.000133763
62 *383:10 *393:16 3.09233e-05
63 *383:12 *393:16 0.000196613
64 *383:12 *393:18 9.50342e-06
65 *383:14 *393:18 0.000133763
66 *383:14 *393:20 3.09233e-05
67 *383:16 *393:20 0.000196613
68 *383:16 *393:22 9.50342e-06
69 *383:18 *393:22 0.000179922
70 *383:18 *393:24 4.92971e-05
71 *383:20 *393:24 0.000131124
72 *383:20 *393:26 9.50342e-06
73 *383:22 *393:26 0.000133763
74 *383:22 *393:28 9.50342e-06
75 *383:24 *393:28 0.000352768
76 *383:24 *393:32 9.50342e-06
77 *383:37 *1725:C 0
78 *391:10 *1724:C 5.53883e-05
79 *392:14 *393:6 0.00016031
80 *392:14 *393:10 1.08056e-05
*RES
1 *1979:X *393:6 3.775 
2 *393:6 *393:10 3.635 
3 *393:10 *393:12 2.655 
4 *393:12 *393:14 1.635 
5 *393:14 *393:16 2.655 
6 *393:16 *393:18 1.635 
7 *393:18 *393:20 2.655 
8 *393:20 *393:22 2.145 
9 *393:22 *393:24 2.145 
10 *393:24 *393:26 1.635 
11 *393:26 *393:28 4.185 
12 *393:28 *393:32 4.145 
13 *393:32 *1724:C 8.81 
14 *393:32 *1723:C 2.215 
15 *393:28 *1725:C 6.045 
16 *393:26 *1726:C 6.045 
17 *393:24 *1727:C 3.6 
18 *393:22 *1728:C 6.15 
19 *393:20 *1729:C 3.6 
20 *393:18 *1730:C 6.045 
21 *393:16 *1731:C 3.6 
22 *393:14 *1732:C 6.045 
23 *393:12 *1733:C 3.6 
24 *393:10 *1734:C 6.045 
25 *393:6 *1735:C 1.6 
*END

*D_NET *394 0.0184432
*CONN
*I *1738:C I *D sky130_fd_sc_hd__nor4b_1
*I *1739:C I *D sky130_fd_sc_hd__nor4b_1
*I *1741:C I *D sky130_fd_sc_hd__nor4b_1
*I *1745:C I *D sky130_fd_sc_hd__nor4b_1
*I *1746:C I *D sky130_fd_sc_hd__nor4b_1
*I *1749:C I *D sky130_fd_sc_hd__nor4b_1
*I *1762:C I *D sky130_fd_sc_hd__nor4b_1
*I *1764:C I *D sky130_fd_sc_hd__nor4b_1
*I *1763:C I *D sky130_fd_sc_hd__nor4b_1
*I *1747:C I *D sky130_fd_sc_hd__nor4b_1
*I *1748:C I *D sky130_fd_sc_hd__nor4b_1
*I *1744:C I *D sky130_fd_sc_hd__nor4b_1
*I *1742:C I *D sky130_fd_sc_hd__nor4b_1
*I *1743:C I *D sky130_fd_sc_hd__nor4b_1
*I *1740:C I *D sky130_fd_sc_hd__nor4b_1
*I *1737:C I *D sky130_fd_sc_hd__nor4b_1
*I *1980:X O *D sky130_fd_sc_hd__buf_4
*CAP
1 *1738:C 0
2 *1739:C 0.000174483
3 *1741:C 0
4 *1745:C 9.04475e-05
5 *1746:C 9.12184e-05
6 *1749:C 0.000314481
7 *1762:C 0.000105547
8 *1764:C 9.15676e-05
9 *1763:C 0
10 *1747:C 4.26336e-06
11 *1748:C 0.000198562
12 *1744:C 7.18839e-05
13 *1742:C 2.61242e-05
14 *1743:C 0.000121433
15 *1740:C 2.07321e-05
16 *1737:C 5.04868e-05
17 *1980:X 0.000324182
18 *394:163 0.00016313
19 *394:157 0.00137544
20 *394:147 0.00157381
21 *394:134 0.000273138
22 *394:128 0.000433336
23 *394:113 0.000446829
24 *394:100 0.000341538
25 *394:94 0.000291095
26 *394:81 0.000133755
27 *394:68 0.000240703
28 *394:57 0.000331308
29 *394:47 0.000663086
30 *394:35 0.000757256
31 *394:29 0.000330504
32 *394:10 0.000531567
33 *1737:C *1737:A 6.18292e-05
34 *1737:C *416:163 4.9968e-05
35 *1739:C *1739:A 2.30292e-05
36 *1743:C *1743:A 8.23457e-05
37 *1744:C *1744:A 1.19928e-05
38 *1745:C *1745:A 1.91597e-05
39 *1746:C *1746:A 5.18486e-05
40 *1747:C *403:42 1.20411e-05
41 *1748:C *1748:A 0.00015817
42 *1749:C *1749:A 1.81522e-05
43 *1749:C *403:42 8.76982e-05
44 *1762:C *403:33 2.20014e-05
45 *1764:C *1764:A 3.66842e-05
46 *394:10 *1737:A 0.000119242
47 *394:10 *1980:A 3.00381e-05
48 *394:10 *400:48 2.75145e-05
49 *394:29 *433:DIODE 7.23533e-05
50 *394:29 *1737:A 1.15688e-05
51 *394:29 *400:69 4.66108e-05
52 *394:29 *400:82 2.07184e-05
53 *394:29 *416:163 0.000107634
54 *394:35 *1737:A 5.18317e-06
55 *394:35 *403:70 3.69171e-05
56 *394:35 *403:72 8.14925e-05
57 *394:47 *403:66 0.00015639
58 *394:57 *1740:A 1.67131e-05
59 *394:57 *400:82 1.95461e-05
60 *394:57 *403:70 4.1652e-06
61 *394:68 *400:82 0.000135234
62 *394:68 *403:58 5.39718e-05
63 *394:68 *403:66 1.82829e-05
64 *394:81 *400:82 0.000225175
65 *394:81 *403:58 1.86911e-05
66 *394:94 *400:82 0.000160071
67 *394:94 *403:54 4.36573e-06
68 *394:100 *403:52 0.000105098
69 *394:100 *403:54 4.93788e-05
70 *394:113 *403:50 0.000104475
71 *394:113 *403:52 7.25517e-05
72 *394:128 *403:46 2.06767e-05
73 *394:128 *403:48 0.000192854
74 *394:128 *403:50 5.1875e-05
75 *394:134 *1746:A 5.83121e-06
76 *394:147 *403:33 0
77 *394:157 *403:33 0.00262017
78 *394:157 *403:42 4.88478e-05
79 *394:157 *416:130 2.23407e-05
80 *394:163 *403:21 5.61594e-05
81 *394:163 *416:128 4.61744e-05
82 *394:163 *416:130 2.24423e-05
83 *1737:D_N *394:10 8.82494e-05
84 *1738:B *394:29 3.52488e-05
85 *1738:D_N *394:29 3.41508e-05
86 *1739:B *1739:C 1.61831e-05
87 *1739:B *394:47 9.77048e-06
88 *1739:D_N *1739:C 0.000196572
89 *1739:D_N *394:47 7.94912e-05
90 *1740:B *1740:C 4.77757e-05
91 *1740:B *394:57 4.41847e-05
92 *1741:B *394:47 2.10214e-05
93 *1741:D_N *394:68 1.79536e-05
94 *1742:B *1742:C 4.66108e-05
95 *1743:B *1743:C 2.10214e-05
96 *1743:D_N *394:81 0.000183738
97 *1743:D_N *394:94 0.000141869
98 *1744:B *1744:C 3.70572e-05
99 *1745:B *1745:C 1.41165e-05
100 *1745:D_N *1745:C 4.66108e-05
101 *1745:D_N *394:100 0.000118081
102 *1746:B *1746:C 1.87401e-05
103 *1746:D_N *394:134 3.51072e-05
104 *1747:B *1747:C 6.45599e-06
105 *1747:D_N *394:157 1.61831e-05
106 *1748:B *1748:C 2.3256e-05
107 *1749:B *1749:C 4.44401e-05
108 *1749:D_N *1749:C 4.41506e-05
109 *1749:D_N *394:147 0
110 *1762:D_N *1762:C 7.50252e-05
111 *1762:D_N *394:157 0.000196846
112 *1763:B *1764:C 0.000157378
113 *1764:D_N *1764:C 8.77516e-05
114 *1852:CLK *394:29 3.50152e-06
115 *1852:CLK *394:35 0
116 *1854:D *1739:C 8.65905e-05
117 *1855:D *394:57 2.72392e-05
118 *1860:CLK *1748:C 3.50152e-06
119 *1862:D *1749:C 1.16854e-05
120 *1878:D *1764:C 0.000309554
121 *1961:A *394:157 0.000471219
122 *1962:A *394:157 0.000450837
123 *1964:A *394:157 0
124 *384:12 *1764:C 1.55664e-05
125 *384:18 *1764:C 1.4904e-05
126 *384:50 *394:57 1.59888e-05
127 *384:56 *394:57 7.0687e-05
128 *384:66 *394:47 5.92835e-05
*RES
1 *1980:X *394:10 8.895 
2 *394:10 *1737:C 4.665 
3 *394:10 *394:29 5.48 
4 *394:29 *394:35 6.655 
5 *394:35 *394:47 9.835 
6 *394:47 *394:57 8.5 
7 *394:57 *1740:C 2.05 
8 *394:57 *394:68 3.635 
9 *394:68 *1743:C 5.445 
10 *394:68 *394:81 2.655 
11 *394:81 *1742:C 4.05 
12 *394:81 *394:94 3.89 
13 *394:94 *394:100 5.03 
14 *394:100 *1744:C 4.755 
15 *394:100 *394:113 2.145 
16 *394:113 *1748:C 6.735 
17 *394:113 *394:128 5.165 
18 *394:128 *394:134 4.52 
19 *394:134 *1747:C 3.71625 
20 *394:134 *394:147 2.87 
21 *394:147 *394:157 37.855 
22 *394:157 *394:163 5.89 
23 *394:163 *1763:C 1.6 
24 *394:163 *1764:C 5.155 
25 *394:157 *1762:C 3.43 
26 *394:147 *1749:C 5.77 
27 *394:128 *1746:C 3.01 
28 *394:94 *1745:C 3.085 
29 *394:47 *1741:C 1.6 
30 *394:35 *1739:C 5.185 
31 *394:29 *1738:C 1.6 
*END

*D_NET *395 0.00836267
*CONN
*I *1761:C I *D sky130_fd_sc_hd__nor4b_1
*I *1760:C I *D sky130_fd_sc_hd__nor4b_1
*I *1759:C I *D sky130_fd_sc_hd__nor4b_1
*I *1758:C I *D sky130_fd_sc_hd__nor4b_1
*I *1756:C I *D sky130_fd_sc_hd__nor4b_1
*I *1757:C I *D sky130_fd_sc_hd__nor4b_1
*I *1754:C I *D sky130_fd_sc_hd__nor4b_1
*I *1755:C I *D sky130_fd_sc_hd__nor4b_1
*I *1753:C I *D sky130_fd_sc_hd__nor4b_1
*I *1752:C I *D sky130_fd_sc_hd__nor4b_1
*I *1751:C I *D sky130_fd_sc_hd__nor4b_1
*I *1750:C I *D sky130_fd_sc_hd__nor4b_1
*I *1981:X O *D sky130_fd_sc_hd__clkbuf_4
*CAP
1 *1761:C 0.000163892
2 *1760:C 2.68647e-05
3 *1759:C 0.000139329
4 *1758:C 5.78846e-05
5 *1756:C 2.27131e-05
6 *1757:C 0.000144328
7 *1754:C 1.02931e-05
8 *1755:C 8.31782e-05
9 *1753:C 0.000172464
10 *1752:C 2.1704e-05
11 *1751:C 0.000108795
12 *1750:C 5.17365e-05
13 *1981:X 0.000127592
14 *395:128 0.000341573
15 *395:115 0.000313627
16 *395:104 0.000136165
17 *395:93 0.000127274
18 *395:80 0.000267884
19 *395:69 0.000176391
20 *395:58 0.000234626
21 *395:34 0.000194168
22 *395:32 0.000136451
23 *395:19 0.000229421
24 *395:6 0.000222649
25 *1750:C *1750:A 2.05089e-05
26 *1750:C *1981:A 9.53428e-06
27 *1751:C *1753:A 0.000120655
28 *1755:C *1755:A 2.20014e-05
29 *1757:C *1757:A 0.000101098
30 *1758:C *1758:A 2.68464e-05
31 *1758:C *411:30 7.74985e-05
32 *1759:C *411:30 9.99332e-05
33 *1760:C *411:17 4.77719e-05
34 *1761:C *1761:A 2.4997e-05
35 *395:6 *1981:A 4.49945e-05
36 *395:19 *400:99 9.044e-05
37 *395:32 *400:99 1.7635e-05
38 *1750:B *395:19 4.79946e-05
39 *1750:B *395:32 5.13616e-06
40 *1751:B *1751:C 0.000150211
41 *1753:B *1753:C 0.000156468
42 *1753:D_N *1751:C 4.77719e-05
43 *1753:D_N *395:32 0.000205857
44 *1753:D_N *395:58 0.000137577
45 *1754:B *1754:C 4.77719e-05
46 *1755:D_N *1755:C 4.77757e-05
47 *1756:B *1756:C 4.77719e-05
48 *1757:B *1757:C 1.16854e-05
49 *1758:B *1758:C 4.11718e-05
50 *1759:D_N *1758:C 4.77719e-05
51 *1759:D_N *395:115 5.16418e-05
52 *1759:D_N *395:128 0.000142994
53 *1760:B *1760:C 5.33679e-05
54 *1761:B *1761:C 9.06329e-05
55 *1761:D_N *1761:C 4.82919e-05
56 *1866:CLK *1753:C 4.84928e-05
57 *1866:D *1751:C 1.43253e-05
58 *1867:D *1753:C 0.000119866
59 *1870:CLK *1757:C 8.50369e-06
60 *1872:CLK *1759:C 8.50369e-06
61 *1872:D *1757:C 1.75875e-05
62 *1873:D *1758:C 0.000158539
63 *1873:D *1759:C 2.33708e-05
64 *1874:D *1759:C 1.75875e-05
65 *1875:D *1760:C 0
66 *359:8 *1754:C 4.77719e-05
67 *360:12 *1755:C 2.72392e-05
68 *384:34 *1761:C 9.57675e-05
69 *384:34 *395:32 0.000193856
70 *384:34 *395:58 5.55035e-05
71 *384:34 *395:69 9.08774e-05
72 *384:34 *395:80 0.000134538
73 *384:34 *395:93 7.26629e-05
74 *384:34 *395:104 8.1552e-05
75 *384:34 *395:115 7.1301e-06
76 *384:34 *395:128 0.000189808
77 *385:25 *1761:C 5.05223e-05
78 *385:25 *395:104 1.03592e-05
79 *385:25 *395:115 7.06865e-05
80 *385:25 *395:128 0.000491554
81 *385:27 *395:104 3.10777e-05
82 *385:29 *395:104 0.000108322
83 *385:31 *395:80 8.59296e-05
84 *385:31 *395:93 0.000137571
85 *385:31 *395:104 8.53113e-06
86 *385:37 *395:69 8.53113e-06
87 *385:37 *395:80 0.000162325
88 *385:52 *395:69 4.62396e-05
89 *385:58 *395:58 5.35418e-05
90 *385:58 *395:69 8.68097e-06
91 *385:77 *1752:C 4.66108e-05
92 *385:77 *1753:C 3.18959e-05
*RES
1 *1981:X *395:6 3.085 
2 *395:6 *1750:C 2.665 
3 *395:6 *395:19 3.125 
4 *395:19 *1751:C 6.135 
5 *395:19 *395:32 2.655 
6 *395:32 *395:34 2 
7 *395:34 *1752:C 2.05 
8 *395:34 *1753:C 9.335 
9 *395:32 *395:58 1.89 
10 *395:58 *1755:C 5.085 
11 *395:58 *395:69 2.145 
12 *395:69 *1754:C 4.05 
13 *395:69 *395:80 2.91 
14 *395:80 *1757:C 5.7 
15 *395:80 *395:93 1.635 
16 *395:93 *1756:C 4.05 
17 *395:93 *395:104 1.89 
18 *395:104 *1758:C 5.775 
19 *395:104 *395:115 0.87 
20 *395:115 *1759:C 5.7 
21 *395:115 *395:128 5.715 
22 *395:128 *1760:C 4.41 
23 *395:128 *1761:C 7.23 
*END

*D_NET *396 0.0188813
*CONN
*I *1773:C I *D sky130_fd_sc_hd__nor4b_1
*I *1772:C I *D sky130_fd_sc_hd__nor4b_1
*I *1788:C I *D sky130_fd_sc_hd__nor4b_1
*I *1791:C I *D sky130_fd_sc_hd__nor4b_1
*I *1790:C I *D sky130_fd_sc_hd__nor4b_1
*I *1789:C I *D sky130_fd_sc_hd__nor4b_1
*I *1774:C I *D sky130_fd_sc_hd__nor4b_1
*I *1777:C I *D sky130_fd_sc_hd__nor4b_1
*I *1775:C I *D sky130_fd_sc_hd__nor4b_1
*I *1770:C I *D sky130_fd_sc_hd__nor4b_1
*I *1771:C I *D sky130_fd_sc_hd__nor4b_1
*I *1769:C I *D sky130_fd_sc_hd__nor4b_1
*I *1768:C I *D sky130_fd_sc_hd__nor4b_1
*I *1767:C I *D sky130_fd_sc_hd__nor4b_1
*I *1766:C I *D sky130_fd_sc_hd__nor4b_1
*I *1765:C I *D sky130_fd_sc_hd__nor4b_1
*I *1982:X O *D sky130_fd_sc_hd__buf_4
*CAP
1 *1773:C 7.19027e-05
2 *1772:C 8.67665e-05
3 *1788:C 0.000168526
4 *1791:C 6.97549e-05
5 *1790:C 0.00013405
6 *1789:C 0
7 *1774:C 0
8 *1777:C 0.000121062
9 *1775:C 1.31277e-05
10 *1770:C 0.000109427
11 *1771:C 0.00021968
12 *1769:C 0.000126963
13 *1768:C 4.77901e-05
14 *1767:C 0.000131148
15 *1766:C 0.000142203
16 *1765:C 0.000276833
17 *1982:X 0
18 *396:215 0.000280992
19 *396:206 0.000167501
20 *396:202 0.00226504
21 *396:177 0.00215863
22 *396:158 0.000361389
23 *396:141 0.00020649
24 *396:133 0.00050289
25 *396:123 0.00072798
26 *396:85 0.000329107
27 *396:83 0.000442129
28 *396:68 0.000308676
29 *396:55 0.000207839
30 *396:40 0.000267081
31 *396:25 0.000249245
32 *396:4 0.000322986
33 *1765:C *400:126 1.79483e-05
34 *1766:C *1766:A 2.59981e-05
35 *1766:C *412:67 6.99988e-05
36 *1768:C *1768:A 3.30182e-05
37 *1773:C *1773:A 4.41506e-05
38 *396:25 *438:DIODE 8.23457e-05
39 *396:40 *412:67 0.000100544
40 *396:55 *412:65 9.68865e-05
41 *396:55 *412:67 5.53249e-06
42 *396:68 *412:61 3.4222e-05
43 *396:68 *412:63 8.42239e-05
44 *396:68 *412:65 5.53249e-06
45 *396:83 *412:61 0.000148968
46 *396:123 *412:59 8.82538e-05
47 *396:123 *412:61 2.72165e-05
48 *396:133 *1773:A 5.83121e-06
49 *396:133 *416:124 0.000133074
50 *396:141 *1774:A 4.14369e-05
51 *396:141 *412:53 1.91597e-05
52 *396:141 *412:55 0.000137578
53 *396:158 *412:53 8.34281e-06
54 *396:202 *1784:C 0.000192493
55 *396:202 *400:162 0.000350502
56 *1766:B *1766:C 0.000123592
57 *1766:D_N *1765:C 1.88602e-05
58 *1767:B *1767:C 4.07117e-05
59 *1767:D_N *1767:C 2.75229e-05
60 *1769:B *1769:C 0.00012182
61 *1770:B *1770:C 2.75668e-05
62 *1770:D_N *1770:C 2.75229e-05
63 *1770:D_N *1771:C 0.000223031
64 *1771:B *1771:C 5.12462e-05
65 *1772:B *1772:C 7.35284e-05
66 *1772:B *396:133 0.000119762
67 *1772:D_N *396:123 3.97211e-05
68 *1773:D_N *396:133 4.77757e-05
69 *1774:B *396:177 3.01405e-05
70 *1774:D_N *1777:C 4.66108e-05
71 *1774:D_N *396:133 3.30483e-05
72 *1774:D_N *396:158 9.15784e-05
73 *1774:D_N *396:177 0.000119762
74 *1784:D_N *396:202 9.69304e-05
75 *1788:B *1788:C 0.000188094
76 *1788:B *396:202 8.49205e-05
77 *1788:D_N *396:202 0.000107176
78 *1790:B *1790:C 0.000156758
79 *1791:B *1791:C 4.53396e-05
80 *1791:B *396:215 1.5996e-05
81 *1880:D *1766:C 1.16854e-05
82 *1884:CLK *1769:C 1.20052e-05
83 *1887:D *1770:C 1.16854e-05
84 *1890:CLK *1772:C 1.20052e-05
85 *1890:D *396:202 8.6387e-05
86 *1892:CLK *396:202 2.68464e-05
87 *1892:D *396:202 0.00027064
88 *1893:CLK *396:202 2.50049e-05
89 *1893:D *1777:C 2.42043e-05
90 *1894:D *396:202 0.000273001
91 *1900:CLK *396:202 8.35068e-05
92 *1900:D *396:202 2.997e-05
93 *1952:A *396:141 2.92496e-05
94 *1953:A *396:141 0.000160658
95 *237:14 *1765:C 0.000134229
96 *237:14 *1766:C 0.000381299
97 *237:14 *396:40 0.000174519
98 *237:14 *396:55 0.000177568
99 *237:14 *396:68 0.000219012
100 *237:14 *396:83 0.000261136
101 *237:14 *396:123 0.000252002
102 *237:14 *396:158 9.28013e-05
103 *237:16 *1791:C 0.000141606
104 *237:16 *396:206 0.000229203
105 *237:16 *396:215 0.000226841
106 *361:18 *396:123 6.33103e-05
107 *362:8 *396:141 4.66108e-05
108 *366:10 *396:202 4.6657e-05
109 *366:23 *396:202 0.000244869
110 *366:36 *396:202 7.63282e-05
111 *366:45 *396:202 0.000130065
112 *366:58 *396:202 1.52184e-05
113 *386:43 *1765:C 1.68186e-05
114 *386:88 *1771:C 1.50383e-05
115 *386:107 *396:123 0.000261572
116 *386:107 *396:133 6.23541e-06
117 *386:116 *396:133 5.49968e-05
118 *386:144 *1775:C 3.26889e-05
119 *386:144 *396:158 1.14169e-05
120 *386:148 *1777:C 5.53243e-05
121 *386:170 *396:202 0
122 *386:170 *396:206 1.42807e-05
123 *386:183 *396:206 8.40388e-05
124 *386:198 *396:206 2.78196e-05
125 *386:198 *396:215 0.000101485
*RES
1 *1982:X *396:4 1.6 
2 *396:4 *1765:C 9.44 
3 *396:4 *396:25 2.795 
4 *396:25 *1766:C 8.1 
5 *396:25 *396:40 2.145 
6 *396:40 *1767:C 5.805 
7 *396:40 *396:55 2.145 
8 *396:55 *1768:C 4.41 
9 *396:55 *396:68 2.655 
10 *396:68 *1769:C 5.805 
11 *396:68 *396:83 3.165 
12 *396:83 *396:85 2 
13 *396:85 *1771:C 8.86625 
14 *396:85 *1770:C 3.445 
15 *396:83 *396:123 13.47 
16 *396:123 *396:133 9.88 
17 *396:133 *396:141 6.94 
18 *396:141 *1775:C 1.96 
19 *396:141 *396:158 5.935 
20 *396:158 *1777:C 4.015 
21 *396:158 *396:177 2.535 
22 *396:177 *1774:C 1.6 
23 *396:177 *396:202 44.495 
24 *396:202 *396:206 4.655 
25 *396:206 *1789:C 3.6 
26 *396:206 *396:215 2.655 
27 *396:215 *1790:C 5.79 
28 *396:215 *1791:C 5.235 
29 *396:202 *1788:C 4.045 
30 *396:133 *1772:C 3.1 
31 *396:123 *1773:C 2.755 
*END

*D_NET *397 0.00700085
*CONN
*I *1776:C I *D sky130_fd_sc_hd__nor4b_1
*I *1787:C I *D sky130_fd_sc_hd__nor4b_1
*I *1786:C I *D sky130_fd_sc_hd__nor4b_1
*I *1785:C I *D sky130_fd_sc_hd__nor4b_1
*I *1784:C I *D sky130_fd_sc_hd__nor4b_1
*I *1783:C I *D sky130_fd_sc_hd__nor4b_1
*I *1782:C I *D sky130_fd_sc_hd__nor4b_1
*I *1781:C I *D sky130_fd_sc_hd__nor4b_1
*I *1778:C I *D sky130_fd_sc_hd__nor4b_1
*I *1779:C I *D sky130_fd_sc_hd__nor4b_1
*I *1780:C I *D sky130_fd_sc_hd__nor4b_1
*I *1983:X O *D sky130_fd_sc_hd__buf_2
*CAP
1 *1776:C 0.000136976
2 *1787:C 3.48819e-05
3 *1786:C 0.000115288
4 *1785:C 0
5 *1784:C 9.65933e-05
6 *1783:C 0
7 *1782:C 0.0001793
8 *1781:C 0
9 *1778:C 0.000164479
10 *1779:C 2.206e-05
11 *1780:C 0.000187205
12 *1983:X 0
13 *397:100 0.000208867
14 *397:91 0.000114781
15 *397:76 0.000214401
16 *397:67 0.000104646
17 *397:52 0.000299441
18 *397:43 0.000106026
19 *397:30 0.000277565
20 *397:6 0.000446246
21 *397:4 0.000289679
22 *1776:C *1983:A 0.000154427
23 *1776:C *413:41 1.59888e-05
24 *1779:C *413:41 1.37328e-05
25 *1780:C *1779:A 1.47347e-05
26 *1780:C *413:41 4.9253e-06
27 *397:6 *1983:A 1.56428e-05
28 *397:6 *413:41 4.375e-05
29 *1778:B *1778:C 0.000188891
30 *1778:D_N *397:30 5.71481e-05
31 *1782:B *1782:C 6.32792e-05
32 *1784:B *1784:C 2.61093e-05
33 *1784:D_N *1784:C 4.41506e-05
34 *1786:B *1786:C 4.01811e-05
35 *1786:D_N *1786:C 8.23457e-05
36 *1787:B *1787:C 0.000156842
37 *1787:B *397:100 7.4027e-05
38 *1895:D *397:6 7.10593e-06
39 *1896:CLK *1778:C 1.20052e-05
40 *1896:D *1778:C 1.16854e-05
41 *1900:CLK *1784:C 1.20052e-05
42 *237:16 *1776:C 0
43 *237:16 *1787:C 0.000164686
44 *237:16 *397:30 0.000176647
45 *237:16 *397:43 0.00011852
46 *237:16 *397:52 0.000204447
47 *237:16 *397:67 0.000161623
48 *237:16 *397:76 0.000204084
49 *237:16 *397:91 0.000158844
50 *237:16 *397:100 0.000201019
51 *367:62 *1776:C 0
52 *386:170 *1780:C 5.88634e-05
53 *386:170 *397:30 2.33681e-05
54 *387:10 *1779:C 3.26889e-05
55 *387:10 *1780:C 0.000158435
56 *387:38 *1780:C 0.000113572
57 *387:53 *1778:C 0
58 *387:53 *397:30 9.50342e-06
59 *387:53 *397:43 0.000110683
60 *387:62 *397:43 9.50342e-06
61 *387:62 *397:52 0.000197298
62 *387:77 *397:52 9.50342e-06
63 *387:77 *397:67 0.00015212
64 *387:86 *397:67 9.50342e-06
65 *387:86 *397:76 0.000152821
66 *387:99 *397:76 5.02905e-05
67 *387:99 *397:91 0.00015201
68 *387:108 *397:91 9.50342e-06
69 *387:108 *397:100 0.000131408
70 *396:202 *1784:C 0.000192493
*RES
1 *1983:X *397:4 1.6 
2 *397:4 *397:6 1.83 
3 *397:6 *1780:C 8.81 
4 *397:6 *1779:C 2.215 
5 *397:6 *397:30 4.145 
6 *397:30 *1778:C 6.045 
7 *397:30 *397:43 1.38 
8 *397:43 *1781:C 3.6 
9 *397:43 *397:52 2.4 
10 *397:52 *1782:C 6.405 
11 *397:52 *397:67 1.89 
12 *397:67 *1783:C 3.6 
13 *397:67 *397:76 2.4 
14 *397:76 *1784:C 6.15 
15 *397:76 *397:91 1.89 
16 *397:91 *1785:C 3.6 
17 *397:91 *397:100 2.4 
18 *397:100 *1786:C 5.43 
19 *397:100 *1787:C 5.49 
20 *397:4 *1776:C 8.255 
*END

*D_NET *398 0.0174971
*CONN
*I *1792:C I *D sky130_fd_sc_hd__nor4b_1
*I *1793:C I *D sky130_fd_sc_hd__nor4b_1
*I *1794:C I *D sky130_fd_sc_hd__nor4b_1
*I *1802:C I *D sky130_fd_sc_hd__nor4b_1
*I *1804:C I *D sky130_fd_sc_hd__nor4b_1
*I *1818:C I *D sky130_fd_sc_hd__nor4b_1
*I *1820:C I *D sky130_fd_sc_hd__nor4b_1
*I *1819:C I *D sky130_fd_sc_hd__nor4b_1
*I *1803:C I *D sky130_fd_sc_hd__nor4b_1
*I *1801:C I *D sky130_fd_sc_hd__nor4b_1
*I *1800:C I *D sky130_fd_sc_hd__nor4b_1
*I *1797:C I *D sky130_fd_sc_hd__nor4b_1
*I *1799:C I *D sky130_fd_sc_hd__nor4b_1
*I *1798:C I *D sky130_fd_sc_hd__nor4b_1
*I *1796:C I *D sky130_fd_sc_hd__nor4b_1
*I *1795:C I *D sky130_fd_sc_hd__nor4b_1
*I *1984:X O *D sky130_fd_sc_hd__buf_4
*CAP
1 *1792:C 8.57906e-05
2 *1793:C 0
3 *1794:C 0.00013852
4 *1802:C 0
5 *1804:C 0
6 *1818:C 0
7 *1820:C 0.000212848
8 *1819:C 0.000405559
9 *1803:C 0.000117034
10 *1801:C 0.000151185
11 *1800:C 0
12 *1797:C 0.000273692
13 *1799:C 0
14 *1798:C 3.13966e-05
15 *1796:C 0.00018076
16 *1795:C 7.2745e-05
17 *1984:X 4.11563e-05
18 *398:191 0.000739314
19 *398:168 0.0021163
20 *398:154 0.00124527
21 *398:141 0.000251706
22 *398:137 0.00020198
23 *398:118 0.000581324
24 *398:101 0.000508168
25 *398:73 0.000273692
26 *398:71 0.000319748
27 *398:56 0.000248611
28 *398:41 0.000427639
29 *398:24 0.000375847
30 *398:16 0.000360331
31 *398:10 0.000204827
32 *398:6 0.000269991
33 *1792:C *1792:A 2.1939e-05
34 *1792:C *1984:A 9.08126e-05
35 *1795:C *1795:A 4.66826e-05
36 *1798:C *414:17 0.000158532
37 *1803:C *1803:A 1.91597e-05
38 *1819:C *1819:A 8.48991e-05
39 *398:10 *1793:A 2.8185e-05
40 *398:41 *400:200 6.70324e-06
41 *398:56 *400:200 0.000316371
42 *398:71 *400:200 0.000113416
43 *398:101 *1800:A 1.91597e-05
44 *398:101 *400:200 6.97581e-05
45 *398:168 *1804:A 1.34594e-05
46 *398:168 *414:144 0.000918871
47 *398:168 *416:39 0.000251694
48 *398:191 *414:144 5.4003e-05
49 *398:191 *414:165 0.0005057
50 *432:DIODE *398:168 0.000162325
51 *1792:B *398:16 9.50342e-06
52 *1794:B *1794:C 2.75668e-05
53 *1794:D_N *1794:C 4.08514e-05
54 *1794:D_N *398:24 4.60061e-05
55 *1796:B *1796:C 2.75668e-05
56 *1796:D_N *1796:C 6.58423e-05
57 *1798:B *1798:C 0.000158532
58 *1799:B *1797:C 3.83194e-05
59 *1800:B *398:101 2.3256e-05
60 *1800:B *398:118 4.27783e-05
61 *1800:D_N *398:101 8.23457e-05
62 *1801:B *1801:C 6.53632e-05
63 *1802:B *398:137 0.000118081
64 *1803:D_N *1803:C 8.23457e-05
65 *1804:B *398:168 4.82863e-05
66 *1804:D_N *398:168 0.000122801
67 *1818:D_N *398:191 0.000272674
68 *1819:B *1819:C 0.00011777
69 *1820:B *1820:C 0.000333929
70 *1909:D *398:6 4.8854e-05
71 *1909:D *398:10 6.58339e-05
72 *1915:D *1797:C 0.000119866
73 *1919:D *398:137 2.49909e-05
74 *1935:CLK *1820:C 0
75 *237:16 *1820:C 0.000141592
76 *237:16 *398:16 0.000203769
77 *237:16 *398:56 1.07797e-05
78 *237:16 *398:71 0.000186499
79 *237:16 *398:101 0.000139245
80 *237:16 *398:141 0.000179015
81 *237:16 *398:154 0.000181376
82 *363:16 *398:141 9.40875e-05
83 *363:16 *398:154 9.1436e-05
84 *388:8 *398:10 5.58436e-05
85 *388:27 *398:16 0.000139245
86 *388:40 *398:16 7.30547e-05
87 *388:40 *398:24 0.000134249
88 *388:40 *398:41 2.97802e-05
89 *388:53 *398:41 0.000140413
90 *388:68 *398:41 4.28794e-05
91 *388:68 *398:56 0.000315344
92 *388:89 *1797:C 0.000107354
93 *388:102 *1797:C 2.43962e-05
94 *388:102 *398:118 2.63889e-05
95 *388:119 *398:118 0.000298821
96 *388:134 *398:118 3.09233e-05
97 *388:134 *398:137 0.000129742
98 *388:193 *398:168 1.08758e-05
99 *388:218 *1820:C 9.50342e-06
*RES
1 *1984:X *398:6 2.395 
2 *398:6 *398:10 2.445 
3 *398:10 *398:16 6.4 
4 *398:16 *398:24 4.79 
5 *398:24 *1795:C 4.755 
6 *398:24 *398:41 3.21 
7 *398:41 *1796:C 6.495 
8 *398:41 *398:56 3.93 
9 *398:56 *1798:C 5.085 
10 *398:56 *398:71 2.955 
11 *398:71 *398:73 2 
12 *398:73 *1799:C 1.6 
13 *398:73 *1797:C 10.19 
14 *398:71 *398:101 6.08 
15 *398:101 *1800:C 1.6 
16 *398:101 *398:118 7.805 
17 *398:118 *1801:C 6.06 
18 *398:118 *398:137 4.775 
19 *398:137 *398:141 4.145 
20 *398:141 *1803:C 5.43 
21 *398:141 *398:154 4.145 
22 *398:154 *398:168 27.755 
23 *398:168 *1819:C 8.91 
24 *398:168 *398:191 12.5 
25 *398:191 *1820:C 9.68 
26 *398:191 *1818:C 1.6 
27 *398:154 *1804:C 1.6 
28 *398:137 *1802:C 1.6 
29 *398:16 *1794:C 3.79 
30 *398:10 *1793:C 1.6 
31 *398:6 *1792:C 7.235 
*END

*D_NET *399 0.00943408
*CONN
*I *1805:C I *D sky130_fd_sc_hd__nor4b_1
*I *1809:C I *D sky130_fd_sc_hd__nor4b_1
*I *1812:C I *D sky130_fd_sc_hd__nor4b_1
*I *1811:C I *D sky130_fd_sc_hd__nor4b_1
*I *1816:C I *D sky130_fd_sc_hd__nor4b_1
*I *1817:C I *D sky130_fd_sc_hd__nor4b_1
*I *1815:C I *D sky130_fd_sc_hd__nor4b_1
*I *1814:C I *D sky130_fd_sc_hd__nor4b_1
*I *1813:C I *D sky130_fd_sc_hd__nor4b_1
*I *1810:C I *D sky130_fd_sc_hd__nor4b_1
*I *1808:C I *D sky130_fd_sc_hd__nor4b_1
*I *1807:C I *D sky130_fd_sc_hd__nor4b_1
*I *1806:C I *D sky130_fd_sc_hd__nor4b_1
*I *1985:X O *D sky130_fd_sc_hd__clkbuf_4
*CAP
1 *1805:C 0.000142209
2 *1809:C 0
3 *1812:C 0
4 *1811:C 5.98675e-05
5 *1816:C 0.000107366
6 *1817:C 2.35915e-05
7 *1815:C 0
8 *1814:C 4.29e-05
9 *1813:C 4.89116e-05
10 *1810:C 0
11 *1808:C 7.99556e-05
12 *1807:C 9.34727e-05
13 *1806:C 0.000114999
14 *1985:X 0
15 *399:141 0.000300554
16 *399:126 0.000514141
17 *399:107 0.00048178
18 *399:103 0.000243891
19 *399:92 0.000383792
20 *399:82 0.000482123
21 *399:74 0.000618763
22 *399:55 0.000723372
23 *399:36 0.000577893
24 *399:23 0.00029665
25 *399:6 0.000225609
26 *399:4 0.00020604
27 *1805:C *414:144 8.1015e-05
28 *1806:C *1985:A 5.49536e-05
29 *1807:C *456:DIODE 1.08153e-05
30 *1816:C *1816:A 0.000125419
31 *1817:C *1816:A 3.57349e-05
32 *1817:C *1817:A 4.77719e-05
33 *399:23 *414:144 7.23533e-05
34 *399:36 *456:DIODE 3.17252e-05
35 *399:74 *414:144 0
36 *399:74 *415:61 0.000112783
37 *399:82 *1809:A 7.90859e-05
38 *399:92 *414:144 8.96579e-05
39 *399:92 *415:61 2.61115e-05
40 *399:92 *415:70 5.62119e-05
41 *399:92 *415:107 2.92841e-05
42 *399:141 *1815:A 4.77719e-05
43 *399:141 *415:134 0.000134373
44 *1806:B *1806:C 1.85674e-05
45 *1807:B *1807:C 7.91111e-05
46 *1809:B *399:74 6.89801e-05
47 *1809:D_N *399:55 0.000168039
48 *1809:D_N *399:82 4.18603e-06
49 *1810:D_N *399:74 6.69608e-06
50 *1811:B *1811:C 2.61093e-05
51 *1811:B *399:103 3.59784e-05
52 *1812:D_N *399:92 4.77757e-05
53 *1813:B *1813:C 2.68464e-05
54 *1813:B *399:103 6.03315e-05
55 *1815:B *399:126 1.08758e-05
56 *1815:B *399:141 2.10279e-05
57 *1816:B *1816:C 0.000223637
58 *1816:D_N *399:126 7.96104e-06
59 *1817:B *1816:C 0.000130086
60 *1817:B *1817:C 4.01749e-05
61 *1821:A *1814:C 8.23457e-05
62 *1923:D *1806:C 2.68526e-05
63 *1923:D *399:6 2.83579e-05
64 *1925:D *1808:C 2.75145e-05
65 *1926:D *399:55 0.000134249
66 *1926:D *399:74 8.50428e-05
67 *1927:D *399:55 4.41506e-05
68 *1928:CLK *399:74 1.20052e-05
69 *1929:D *399:82 0.000119866
70 *1930:D *1811:C 0.000122801
71 *1930:D *399:92 2.97746e-05
72 *1930:D *399:103 0.00018955
73 *1931:D *1814:C 3.64998e-06
74 *1932:D *399:126 8.58007e-05
75 *1934:D *1816:C 1.53053e-05
76 *137:17 *399:141 0.000131168
77 *237:16 *399:36 0.000127772
78 *237:16 *399:55 7.70424e-07
79 *237:16 *399:82 0
80 *237:16 *399:107 0.000160651
81 *237:16 *399:126 0.000227123
82 *370:12 *399:55 0
83 *370:14 *399:36 0
84 *370:16 *1805:C 0
85 *370:64 *399:107 0
86 *370:75 *399:126 0
87 *389:87 *1811:C 0
*RES
1 *1985:X *399:4 1.6 
2 *399:4 *399:6 0.795 
3 *399:6 *1806:C 3.82 
4 *399:6 *399:23 2.87 
5 *399:23 *1807:C 5.01 
6 *399:23 *399:36 2.91 
7 *399:36 *1808:C 4.74 
8 *399:36 *399:55 8.225 
9 *399:55 *1810:C 1.6 
10 *399:55 *399:74 10.105 
11 *399:74 *399:82 7.975 
12 *399:82 *399:92 8.755 
13 *399:92 *1813:C 2.41 
14 *399:92 *399:103 2.175 
15 *399:103 *399:107 3.89 
16 *399:107 *1814:C 4.395 
17 *399:107 *399:126 8.315 
18 *399:126 *1815:C 1.6 
19 *399:126 *399:141 7.39 
20 *399:141 *1817:C 2.395 
21 *399:141 *1816:C 5.29 
22 *399:103 *1811:C 3.1 
23 *399:82 *1812:C 1.6 
24 *399:74 *1809:C 1.6 
25 *399:4 *1805:C 8.255 
*END

*D_NET *400 0.0394663
*CONN
*I *1983:A I *D sky130_fd_sc_hd__buf_2
*I *439:DIODE I *D sky130_fd_sc_hd__diode_2
*I *1985:A I *D sky130_fd_sc_hd__clkbuf_4
*I *441:DIODE I *D sky130_fd_sc_hd__diode_2
*I *1984:A I *D sky130_fd_sc_hd__buf_4
*I *440:DIODE I *D sky130_fd_sc_hd__diode_2
*I *438:DIODE I *D sky130_fd_sc_hd__diode_2
*I *1982:A I *D sky130_fd_sc_hd__buf_4
*I *437:DIODE I *D sky130_fd_sc_hd__diode_2
*I *1981:A I *D sky130_fd_sc_hd__clkbuf_4
*I *433:DIODE I *D sky130_fd_sc_hd__diode_2
*I *436:DIODE I *D sky130_fd_sc_hd__diode_2
*I *1977:A I *D sky130_fd_sc_hd__buf_4
*I *1980:A I *D sky130_fd_sc_hd__buf_4
*I *1979:A I *D sky130_fd_sc_hd__clkbuf_4
*I *435:DIODE I *D sky130_fd_sc_hd__diode_2
*I *1986:X O *D sky130_fd_sc_hd__clkbuf_4
*CAP
1 *1983:A 0.000276436
2 *439:DIODE 0
3 *1985:A 0.000540135
4 *441:DIODE 0
5 *1984:A 0.000181958
6 *440:DIODE 0
7 *438:DIODE 0.00019282
8 *1982:A 5.98208e-05
9 *437:DIODE 0.000293795
10 *1981:A 9.46495e-05
11 *433:DIODE 0.000142937
12 *436:DIODE 0
13 *1977:A 0
14 *1980:A 8.19609e-06
15 *1979:A 0
16 *435:DIODE 0.000118946
17 *1986:X 0
18 *400:200 0.00247402
19 *400:166 0.000384115
20 *400:162 0.00361285
21 *400:152 0.00468405
22 *400:126 0.000354745
23 *400:116 0.00573644
24 *400:99 0.00318107
25 *400:82 0.00112069
26 *400:69 0.00107896
27 *400:48 2.10146e-05
28 *400:26 0.000336648
29 *400:24 0.00037975
30 *400:20 0.000387797
31 *400:4 0.000332295
32 *433:DIODE *1737:A 9.8201e-05
33 *437:DIODE *1750:A 2.47705e-05
34 *437:DIODE *403:33 0
35 *437:DIODE *411:61 9.1223e-06
36 *1983:A *1776:A 4.17521e-05
37 *1984:A *1792:A 0.000112284
38 *400:26 *416:163 0
39 *400:82 *1737:A 7.20828e-05
40 *400:82 *403:50 5.72916e-05
41 *400:82 *403:52 6.95591e-05
42 *400:82 *403:54 1.38088e-05
43 *400:82 *403:70 0.000171179
44 *400:82 *403:72 0.000149662
45 *400:82 *416:163 0.000151901
46 *400:116 *416:163 0.00176428
47 *400:162 *1776:A 3.64998e-06
48 *400:162 *412:39 0.000777333
49 *400:162 *416:124 0.000205788
50 *400:200 *455:DIODE 7.01359e-05
51 *400:200 *414:87 7.95445e-05
52 *400:200 *414:93 8.30853e-06
53 *400:200 *416:10 0.000112263
54 *400:200 *416:39 0
55 *432:DIODE *1985:A 7.23635e-05
56 *1734:D_N *435:DIODE 3.45588e-05
57 *1737:B *400:20 3.86324e-05
58 *1737:B *400:24 0
59 *1737:B *400:82 1.10631e-05
60 *1737:D_N *1980:A 3.00381e-05
61 *1737:D_N *400:48 2.05056e-05
62 *1738:B *400:20 3.50152e-06
63 *1738:B *400:82 1.17036e-05
64 *1738:D_N *400:20 0.00013322
65 *1738:D_N *400:69 2.39856e-05
66 *1739:D_N *400:82 1.79536e-05
67 *1741:D_N *400:82 7.91828e-05
68 *1748:D_N *400:82 0.000496522
69 *1749:D_N *400:82 2.2142e-05
70 *1750:B *400:82 4.18603e-06
71 *1750:B *400:99 1.61461e-05
72 *1750:C *1981:A 9.53428e-06
73 *1765:C *400:126 1.79483e-05
74 *1776:B *1983:A 9.76407e-06
75 *1776:B *400:162 1.06624e-05
76 *1776:C *1983:A 0.000154427
77 *1776:D_N *1983:A 3.05373e-05
78 *1792:B *1984:A 0.000184989
79 *1792:B *400:166 1.08758e-05
80 *1792:C *1984:A 9.08126e-05
81 *1800:D_N *400:200 0.000117135
82 *1806:C *1985:A 5.49536e-05
83 *1806:D_N *1985:A 0.000103991
84 *1851:D *433:DIODE 3.50562e-05
85 *1865:D *1981:A 0.000233561
86 *1895:D *1983:A 0.000121023
87 *1923:D *1985:A 0.000233568
88 *1986:A *400:20 0.000122801
89 *1986:A *400:24 4.43871e-06
90 *237:14 *400:152 0.00012369
91 *237:16 *1983:A 6.7449e-05
92 *237:16 *400:152 1.7635e-05
93 *237:16 *400:162 0
94 *237:16 *400:200 2.29583e-05
95 *384:34 *400:82 0.000507256
96 *384:34 *400:99 0.000147337
97 *384:36 *400:82 8.45475e-05
98 *384:38 *400:82 0.000109009
99 *384:40 *400:82 0.000152127
100 *384:42 *400:82 0.000195238
101 *384:44 *400:82 0.000129742
102 *384:46 *400:82 0.000219005
103 *384:48 *400:82 0.000129047
104 *384:50 *400:82 0.00021665
105 *384:56 *400:82 0.000138551
106 *384:66 *400:82 0.000187238
107 *384:68 *400:82 4.53788e-05
108 *386:170 *400:162 0.000183929
109 *386:183 *400:162 0
110 *389:6 *1985:A 6.57665e-06
111 *390:149 *400:162 4.92206e-05
112 *390:169 *400:162 0.000914938
113 *390:169 *400:200 0
114 *390:180 *400:200 0
115 *390:195 *1985:A 8.40269e-05
116 *390:195 *400:200 0.00109206
117 *391:8 *400:26 5.92191e-05
118 *391:10 *435:DIODE 5.20968e-05
119 *391:10 *400:26 0.000137414
120 *394:10 *1980:A 3.00381e-05
121 *394:10 *400:48 2.75145e-05
122 *394:29 *433:DIODE 7.23533e-05
123 *394:29 *400:69 4.66108e-05
124 *394:29 *400:82 2.07184e-05
125 *394:57 *400:82 1.95461e-05
126 *394:68 *400:82 0.000135234
127 *394:81 *400:82 0.000225175
128 *394:94 *400:82 0.000160071
129 *395:6 *1981:A 4.49945e-05
130 *395:19 *400:99 9.044e-05
131 *395:32 *400:99 1.7635e-05
132 *396:25 *438:DIODE 8.23457e-05
133 *396:202 *400:162 0.000350502
134 *397:6 *1983:A 1.56428e-05
135 *398:41 *400:200 6.70324e-06
136 *398:56 *400:200 0.000316371
137 *398:71 *400:200 0.000113416
138 *398:101 *400:200 6.97581e-05
*RES
1 *1986:X *400:4 1.6 
2 *400:4 *400:20 8.665 
3 *400:20 *400:24 4.4 
4 *400:24 *400:26 4.44 
5 *400:26 *435:DIODE 5.52 
6 *400:26 *1979:A 3.6 
7 *400:24 *400:48 2.45 
8 *400:48 *1980:A 2.05 
9 *400:48 *1977:A 1.6 
10 *400:20 *436:DIODE 1.6 
11 *400:4 *400:69 3.14 
12 *400:69 *433:DIODE 5.955 
13 *400:69 *400:82 27.39 
14 *400:82 *1981:A 6.135 
15 *400:82 *400:99 2.44617 
16 *400:99 *437:DIODE 5.6527 
17 *400:99 *400:116 5.706 
18 *400:116 *400:126 3.3579 
19 *400:126 *1982:A 2.395 
20 *400:126 *438:DIODE 4.465 
21 *400:116 *400:152 7.73043 
22 *400:152 *400:162 36.05 
23 *400:162 *400:166 4.175 
24 *400:166 *440:DIODE 1.6 
25 *400:166 *1984:A 8.81 
26 *400:162 *400:200 41.025 
27 *400:200 *441:DIODE 1.6 
28 *400:200 *1985:A 9.07 
29 *400:152 *439:DIODE 1.6 
30 *400:152 *1983:A 10.88 
*END

*D_NET *401 0.00963633
*CONN
*I *1850:RESET_B I *D sky130_fd_sc_hd__dfrtp_4
*I *1836:RESET_B I *D sky130_fd_sc_hd__dfrtp_4
*I *1835:RESET_B I *D sky130_fd_sc_hd__dfrtp_4
*I *1834:RESET_B I *D sky130_fd_sc_hd__dfrtp_4
*I *1833:RESET_B I *D sky130_fd_sc_hd__dfrtp_4
*I *1832:RESET_B I *D sky130_fd_sc_hd__dfrtp_4
*I *1831:RESET_B I *D sky130_fd_sc_hd__dfrtp_4
*I *1830:RESET_B I *D sky130_fd_sc_hd__dfrtp_4
*I *1829:RESET_B I *D sky130_fd_sc_hd__dfrtp_4
*I *1828:RESET_B I *D sky130_fd_sc_hd__dfrtp_4
*I *1827:RESET_B I *D sky130_fd_sc_hd__dfrtp_4
*I *1826:RESET_B I *D sky130_fd_sc_hd__dfrtp_4
*I *1825:RESET_B I *D sky130_fd_sc_hd__dfrtp_4
*I *1824:RESET_B I *D sky130_fd_sc_hd__dfrtp_4
*I *1822:RESET_B I *D sky130_fd_sc_hd__dfrtp_4
*I *1823:RESET_B I *D sky130_fd_sc_hd__dfrtp_4
*I *1987:X O *D sky130_fd_sc_hd__clkbuf_8
*CAP
1 *1850:RESET_B 0.00160089
2 *1836:RESET_B 5.15338e-05
3 *1835:RESET_B 0
4 *1834:RESET_B 0
5 *1833:RESET_B 0
6 *1832:RESET_B 0
7 *1831:RESET_B 3.04013e-05
8 *1830:RESET_B 5.15338e-05
9 *1829:RESET_B 0.000140017
10 *1828:RESET_B 0
11 *1827:RESET_B 0
12 *1826:RESET_B 0.000344602
13 *1825:RESET_B 0.000108666
14 *1824:RESET_B 5.15338e-05
15 *1822:RESET_B 0.000135937
16 *1823:RESET_B 0.000193661
17 *1987:X 0.000193661
18 *401:150 0.00183889
19 *401:139 0.000285654
20 *401:132 0.000251672
21 *401:125 0.000250394
22 *401:118 0.00026344
23 *401:104 0.000337453
24 *401:92 0.000397545
25 *401:76 0.000435008
26 *401:69 0.000245878
27 *401:62 0.000261335
28 *401:38 0.000462849
29 *401:26 0.000328083
30 *401:10 0.000296943
31 *1850:RESET_B *1845:RESET_B 0.000141606
32 *1850:RESET_B *1848:RESET_B 0.000235585
33 *1850:RESET_B *1849:RESET_B 9.69798e-05
34 *1850:RESET_B *402:18 0
35 *1850:RESET_B *402:30 0
36 *1850:RESET_B *402:40 0
37 *1850:RESET_B *402:52 0
38 *1850:RESET_B *402:62 0
39 *1850:RESET_B *402:74 0
40 *1850:RESET_B *402:90 0
41 *1850:RESET_B *402:98 0.000367688
42 *1850:RESET_B *402:105 0.000143266
43 mstream_o[12] *401:139 0
44 mstream_o[12] *401:150 0
45 mstream_o[1] *1823:RESET_B 8.8266e-05
46 mstream_o[22] *1850:RESET_B 0
47 mstream_o[25] *1850:RESET_B 0
48 mstream_o[27] *1850:RESET_B 0
49 mstream_o[2] *1826:RESET_B 0
50 mstream_o[2] *401:38 0
51 *1833:D *401:104 0
52 *1833:D *401:118 0
53 *1833:D *401:125 0
54 *1839:D *1850:RESET_B 0
55 *357:20 *1826:RESET_B 5.35969e-06
56 *357:20 *401:62 0
57 *357:20 *401:69 0
58 *357:20 *401:76 0
59 *357:20 *401:92 0
60 *357:20 *401:104 0
61 *357:20 *401:118 0
62 *357:20 *401:125 0
63 *357:20 *401:132 0
64 *357:20 *401:139 0
65 *357:20 *401:150 0
66 *390:37 *1850:RESET_B 0
67 *390:43 *1850:RESET_B 0
*RES
1 *1987:X *1823:RESET_B 4.7575 
2 *1823:RESET_B *401:10 2 
3 *401:10 *1822:RESET_B 4.0325 
4 *401:10 *401:26 2.7 
5 *401:26 *1824:RESET_B 2.7575 
6 *401:26 *401:38 1.635 
7 *401:38 *1825:RESET_B 3.3575 
8 *401:38 *1826:RESET_B 5.4125 
9 *1826:RESET_B *401:62 3.635 
10 *401:62 *1827:RESET_B 2 
11 *401:62 *401:69 2.655 
12 *401:69 *1828:RESET_B 2 
13 *401:69 *401:76 1.38 
14 *401:76 *1829:RESET_B 3.7025 
15 *401:76 *401:92 3.21 
16 *401:92 *1830:RESET_B 2.7575 
17 *401:92 *401:104 2.145 
18 *401:104 *1831:RESET_B 2.3975 
19 *401:104 *401:118 2.955 
20 *401:118 *1832:RESET_B 2 
21 *401:118 *401:125 1.635 
22 *401:125 *1833:RESET_B 2 
23 *401:125 *401:132 2.655 
24 *401:132 *1834:RESET_B 2 
25 *401:132 *401:139 1.635 
26 *401:139 *1835:RESET_B 2 
27 *401:139 *401:150 2.955 
28 *401:150 *1836:RESET_B 2.7575 
29 *401:150 *1850:RESET_B 31.475 
*END

*D_NET *402 0.00694286
*CONN
*I *1845:RESET_B I *D sky130_fd_sc_hd__dfrtp_4
*I *1849:RESET_B I *D sky130_fd_sc_hd__dfrtp_4
*I *1848:RESET_B I *D sky130_fd_sc_hd__dfrtp_4
*I *1847:RESET_B I *D sky130_fd_sc_hd__dfrtp_4
*I *1846:RESET_B I *D sky130_fd_sc_hd__dfrtp_4
*I *1844:RESET_B I *D sky130_fd_sc_hd__dfrtp_4
*I *1843:RESET_B I *D sky130_fd_sc_hd__dfrtp_4
*I *1842:RESET_B I *D sky130_fd_sc_hd__dfrtp_4
*I *1841:RESET_B I *D sky130_fd_sc_hd__dfrtp_4
*I *1840:RESET_B I *D sky130_fd_sc_hd__dfrtp_4
*I *1839:RESET_B I *D sky130_fd_sc_hd__dfrtp_4
*I *1838:RESET_B I *D sky130_fd_sc_hd__dfrtp_4
*I *1837:RESET_B I *D sky130_fd_sc_hd__dfrtp_4
*I *1988:X O *D sky130_fd_sc_hd__buf_4
*CAP
1 *1845:RESET_B 6.97339e-05
2 *1849:RESET_B 0.000200176
3 *1848:RESET_B 0.000302667
4 *1847:RESET_B 0
5 *1846:RESET_B 0
6 *1844:RESET_B 0.000224865
7 *1843:RESET_B 0.000107375
8 *1842:RESET_B 0.000207465
9 *1841:RESET_B 0.000107375
10 *1840:RESET_B 0.000207465
11 *1839:RESET_B 8.24084e-05
12 *1838:RESET_B 0.000208327
13 *1837:RESET_B 5.59466e-05
14 *1988:X 0.000210078
15 *402:105 0.000167399
16 *402:98 0.000229176
17 *402:90 0.000435822
18 *402:74 0.000531277
19 *402:62 0.000471563
20 *402:52 0.000371474
21 *402:40 0.000448283
22 *402:30 0.000336231
23 *402:18 0.000489489
24 *402:8 0.000415773
25 mstream_o[16] *1838:RESET_B 1.08758e-05
26 mstream_o[17] *402:40 5.48305e-05
27 mstream_o[18] *1840:RESET_B 5.83121e-06
28 mstream_o[20] *1842:RESET_B 5.83121e-06
29 *1850:RESET_B *1845:RESET_B 0.000141606
30 *1850:RESET_B *1848:RESET_B 0.000235585
31 *1850:RESET_B *1849:RESET_B 9.69798e-05
32 *1850:RESET_B *402:18 0
33 *1850:RESET_B *402:30 0
34 *1850:RESET_B *402:40 0
35 *1850:RESET_B *402:52 0
36 *1850:RESET_B *402:62 0
37 *1850:RESET_B *402:74 0
38 *1850:RESET_B *402:90 0
39 *1850:RESET_B *402:98 0.000367688
40 *1850:RESET_B *402:105 0.000143266
41 *390:43 *1848:RESET_B 0
*RES
1 *1988:X *402:8 4.48 
2 *402:8 *1837:RESET_B 0.7425 
3 *402:8 *402:18 4.4 
4 *402:18 *1838:RESET_B 4.8275 
5 *402:18 *402:30 1.89 
6 *402:30 *1839:RESET_B 3.0875 
7 *402:30 *402:40 2.4 
8 *402:40 *1840:RESET_B 4.8275 
9 *402:40 *402:52 1.89 
10 *402:52 *1841:RESET_B 3.4325 
11 *402:52 *402:62 2.4 
12 *402:62 *1842:RESET_B 4.8275 
13 *402:62 *402:74 1.89 
14 *402:74 *1843:RESET_B 3.4325 
15 *402:74 *402:90 6.59 
16 *402:90 *1844:RESET_B 0.7425 
17 *1844:RESET_B *402:98 6.185 
18 *402:98 *1846:RESET_B 2 
19 *402:98 *402:105 1.635 
20 *402:105 *1847:RESET_B 2 
21 *402:105 *1848:RESET_B 4.655 
22 *1848:RESET_B *1849:RESET_B 7.3525 
23 *402:90 *1845:RESET_B 5.635 
*END

*D_NET *403 0.0160439
*CONN
*I *1764:A I *D sky130_fd_sc_hd__nor4b_1
*I *1762:A I *D sky130_fd_sc_hd__nor4b_1
*I *1749:A I *D sky130_fd_sc_hd__nor4b_1
*I *1746:A I *D sky130_fd_sc_hd__nor4b_1
*I *1748:A I *D sky130_fd_sc_hd__nor4b_1
*I *1744:A I *D sky130_fd_sc_hd__nor4b_1
*I *1745:A I *D sky130_fd_sc_hd__nor4b_1
*I *1742:A I *D sky130_fd_sc_hd__nor4b_1
*I *1743:A I *D sky130_fd_sc_hd__nor4b_1
*I *1740:A I *D sky130_fd_sc_hd__nor4b_1
*I *1741:A I *D sky130_fd_sc_hd__nor4b_1
*I *1739:A I *D sky130_fd_sc_hd__nor4b_1
*I *1738:A I *D sky130_fd_sc_hd__nor4b_1
*I *1737:A I *D sky130_fd_sc_hd__nor4b_1
*I *1747:A I *D sky130_fd_sc_hd__nor4b_1
*I *1763:A I *D sky130_fd_sc_hd__nor4b_1
*I *1989:X O *D sky130_fd_sc_hd__buf_4
*CAP
1 *1764:A 6.51712e-05
2 *1762:A 0
3 *1749:A 4.25007e-05
4 *1746:A 3.84781e-05
5 *1748:A 7.89422e-05
6 *1744:A 5.14184e-05
7 *1745:A 9.77645e-05
8 *1742:A 6.67968e-05
9 *1743:A 9.40485e-05
10 *1740:A 6.25534e-05
11 *1741:A 0
12 *1739:A 5.72652e-05
13 *1738:A 0
14 *1737:A 0.000191585
15 *1747:A 0
16 *1763:A 2.09808e-05
17 *1989:X 5.88877e-05
18 *403:72 0.000250757
19 *403:70 0.000210715
20 *403:66 0.000309749
21 *403:58 0.000368418
22 *403:56 0.000318989
23 *403:54 0.000285195
24 *403:52 0.000273603
25 *403:50 0.00021842
26 *403:48 0.000228544
27 *403:46 0.000198173
28 *403:42 0.00020255
29 *403:33 0.00144517
30 *403:21 0.00147426
31 *403:15 0.000268972
32 *403:6 0.000179632
33 *403:6 *1989:A 0.000162684
34 *403:21 *416:128 0
35 *403:33 *1997:A 6.31816e-05
36 *403:33 *411:47 0
37 *403:33 *411:51 0
38 *403:33 *411:53 0
39 *403:33 *411:55 0
40 *403:33 *411:57 0
41 *403:33 *411:59 0
42 *403:33 *411:61 0
43 *403:33 *416:130 8.59365e-05
44 *403:33 *416:132 0.000212187
45 *433:DIODE *1737:A 9.8201e-05
46 *437:DIODE *403:33 0
47 *1737:C *1737:A 6.18292e-05
48 *1739:B *1739:A 0.000308131
49 *1739:C *1739:A 2.30292e-05
50 *1739:D_N *1739:A 0.000269827
51 *1740:B *1740:A 1.08758e-05
52 *1741:B *403:66 1.08758e-05
53 *1741:D_N *403:66 0.000278443
54 *1742:B *1742:A 1.08758e-05
55 *1743:B *1743:A 1.08758e-05
56 *1743:C *1743:A 8.23457e-05
57 *1743:D_N *1743:A 8.40213e-05
58 *1743:D_N *403:54 0.0001059
59 *1743:D_N *403:56 0.000230869
60 *1743:D_N *403:58 9.50342e-06
61 *1744:B *1744:A 2.00153e-05
62 *1744:C *1744:A 1.19928e-05
63 *1745:B *1745:A 4.22112e-05
64 *1745:C *1745:A 1.91597e-05
65 *1745:D_N *1745:A 0.000122435
66 *1746:B *1746:A 1.08758e-05
67 *1746:C *1746:A 5.18486e-05
68 *1747:B *403:33 1.14169e-05
69 *1747:B *403:42 7.13091e-05
70 *1747:C *403:42 1.20411e-05
71 *1747:D_N *403:33 4.99619e-05
72 *1748:B *1748:A 5.83121e-06
73 *1748:C *1748:A 0.00015817
74 *1748:D_N *1748:A 4.77719e-05
75 *1748:D_N *403:46 7.09921e-05
76 *1748:D_N *403:48 0.000115847
77 *1748:D_N *403:50 5.53249e-06
78 *1749:B *1749:A 1.08758e-05
79 *1749:B *403:42 0
80 *1749:C *1749:A 1.81522e-05
81 *1749:C *403:42 8.76982e-05
82 *1749:D_N *1749:A 8.40213e-05
83 *1749:D_N *403:33 0
84 *1750:B *403:33 0
85 *1750:D_N *403:33 5.59243e-05
86 *1762:C *403:33 2.20014e-05
87 *1762:D_N *403:33 0.000233561
88 *1763:B *1764:A 3.57349e-05
89 *1763:B *403:15 0.00016031
90 *1763:D_N *403:6 6.63089e-05
91 *1764:B *1764:A 3.19539e-05
92 *1764:C *1764:A 3.66842e-05
93 *1764:D_N *1764:A 8.65961e-05
94 *1851:D *1737:A 2.93678e-05
95 *1862:D *1749:A 0.00015639
96 *1862:D *403:42 4.30166e-05
97 *384:18 *1764:A 0.000160119
98 *384:18 *403:21 2.01779e-05
99 *384:20 *403:21 0.000187602
100 *384:34 *403:21 9.09788e-06
101 *384:34 *403:33 0
102 *384:66 *403:66 1.33285e-05
103 *394:10 *1737:A 0.000119242
104 *394:29 *1737:A 1.15688e-05
105 *394:35 *1737:A 5.18317e-06
106 *394:35 *403:70 3.69171e-05
107 *394:35 *403:72 8.14925e-05
108 *394:47 *403:66 0.00015639
109 *394:57 *1740:A 1.67131e-05
110 *394:57 *403:70 4.1652e-06
111 *394:68 *403:58 5.39718e-05
112 *394:68 *403:66 1.82829e-05
113 *394:81 *403:58 1.86911e-05
114 *394:94 *403:54 4.36573e-06
115 *394:100 *403:52 0.000105098
116 *394:100 *403:54 4.93788e-05
117 *394:113 *403:50 0.000104475
118 *394:113 *403:52 7.25517e-05
119 *394:128 *403:46 2.06767e-05
120 *394:128 *403:48 0.000192854
121 *394:128 *403:50 5.1875e-05
122 *394:134 *1746:A 5.83121e-06
123 *394:147 *403:33 0
124 *394:157 *403:33 0.00262017
125 *394:157 *403:42 4.88478e-05
126 *394:163 *403:21 5.61594e-05
127 *400:82 *1737:A 7.20828e-05
128 *400:82 *403:50 5.72916e-05
129 *400:82 *403:52 6.95591e-05
130 *400:82 *403:54 1.38088e-05
131 *400:82 *403:70 0.000171179
132 *400:82 *403:72 0.000149662
*RES
1 *1989:X *403:6 3.43 
2 *403:6 *1763:A 1.96 
3 *403:6 *403:15 1.83 
4 *403:15 *403:21 6.655 
5 *403:21 *403:33 37.87 
6 *403:33 *1747:A 1.6 
7 *403:33 *403:42 2.535 
8 *403:42 *403:46 3.635 
9 *403:46 *403:48 2.4 
10 *403:48 *403:50 1.89 
11 *403:50 *403:52 2.145 
12 *403:52 *403:54 1.89 
13 *403:54 *403:56 2.655 
14 *403:56 *403:58 1.635 
15 *403:58 *403:66 6.5 
16 *403:66 *403:70 4.145 
17 *403:70 *403:72 1.89 
18 *403:72 *1737:A 7.575 
19 *403:72 *1738:A 3.6 
20 *403:70 *1739:A 6.465 
21 *403:66 *1741:A 1.6 
22 *403:58 *1740:A 4.665 
23 *403:56 *1743:A 5.445 
24 *403:54 *1742:A 4.665 
25 *403:52 *1745:A 5.445 
26 *403:50 *1744:A 4.41 
27 *403:48 *1748:A 5.445 
28 *403:46 *1746:A 4.41 
29 *403:42 *1749:A 3.085 
30 *403:21 *1762:A 1.6 
31 *403:15 *1764:A 3.79 
*END

*D_NET *404 0.0121692
*CONN
*I *1853:RESET_B I *D sky130_fd_sc_hd__dfrtp_4
*I *1879:RESET_B I *D sky130_fd_sc_hd__dfrtp_4
*I *1865:RESET_B I *D sky130_fd_sc_hd__dfrtp_4
*I *1864:RESET_B I *D sky130_fd_sc_hd__dfrtp_4
*I *1863:RESET_B I *D sky130_fd_sc_hd__dfrtp_4
*I *1862:RESET_B I *D sky130_fd_sc_hd__dfrtp_4
*I *1861:RESET_B I *D sky130_fd_sc_hd__dfrtp_4
*I *1860:RESET_B I *D sky130_fd_sc_hd__dfrtp_4
*I *1859:RESET_B I *D sky130_fd_sc_hd__dfrtp_4
*I *1858:RESET_B I *D sky130_fd_sc_hd__dfrtp_4
*I *1857:RESET_B I *D sky130_fd_sc_hd__dfrtp_4
*I *1856:RESET_B I *D sky130_fd_sc_hd__dfrtp_4
*I *1855:RESET_B I *D sky130_fd_sc_hd__dfrtp_4
*I *1854:RESET_B I *D sky130_fd_sc_hd__dfrtp_4
*I *1852:RESET_B I *D sky130_fd_sc_hd__dfrtp_4
*I *1851:RESET_B I *D sky130_fd_sc_hd__dfrtp_4
*I *1990:X O *D sky130_fd_sc_hd__clkbuf_8
*CAP
1 *1853:RESET_B 0.000271208
2 *1879:RESET_B 0.00125202
3 *1865:RESET_B 8.97404e-05
4 *1864:RESET_B 0
5 *1863:RESET_B 0
6 *1862:RESET_B 0.000303862
7 *1861:RESET_B 0
8 *1860:RESET_B 8.05667e-05
9 *1859:RESET_B 0
10 *1858:RESET_B 8.05667e-05
11 *1857:RESET_B 0.000122367
12 *1856:RESET_B 5.15338e-05
13 *1855:RESET_B 0.000108666
14 *1854:RESET_B 5.15338e-05
15 *1852:RESET_B 3.24164e-05
16 *1851:RESET_B 0.000207051
17 *1990:X 0
18 *404:148 0.0015511
19 *404:137 0.000362484
20 *404:130 0.000259255
21 *404:111 0.00037568
22 *404:99 0.000376126
23 *404:92 0.000295559
24 *404:80 0.000408237
25 *404:68 0.000385945
26 *404:56 0.000342946
27 *404:44 0.000401788
28 *404:32 0.000427802
29 *404:18 0.000544204
30 *404:14 0.00063328
31 *404:4 0.000318061
32 *1879:RESET_B *1866:RESET_B 0.000118513
33 *1879:RESET_B *1878:RESET_B 0.000210846
34 *1879:RESET_B *405:23 0.000257005
35 *1879:RESET_B *405:30 0.000116151
36 *1879:RESET_B *405:42 0.000254651
37 *1879:RESET_B *405:49 0.000143266
38 *1879:RESET_B *405:56 0.000235585
39 *1879:RESET_B *405:63 0.000143266
40 *1879:RESET_B *405:70 0.000235585
41 *1879:RESET_B *405:77 0.000118513
42 *1879:RESET_B *405:89 0.000257005
43 *1879:RESET_B *405:96 0.000164679
44 mstream_o[29] *1851:RESET_B 0.000124895
45 mstream_o[35] *404:80 0
46 mstream_o[35] *404:92 0
47 mstream_o[40] *404:130 0
48 mstream_o[40] *404:137 0
49 mstream_o[45] *1879:RESET_B 0
50 mstream_o[50] *1879:RESET_B 0
51 mstream_o[53] *1879:RESET_B 0
52 mstream_o[55] *1879:RESET_B 0
53 *1853:CLK *1857:RESET_B 4.82369e-05
54 *1853:CLK *404:32 0
55 *1853:CLK *404:44 0
56 *1853:CLK *404:56 0
57 *1853:CLK *404:68 0
58 *1853:CLK *404:80 0
59 *1853:D *1853:RESET_B 8.33476e-05
60 *2:13 *1853:RESET_B 9.37731e-05
61 *2:13 *404:14 0.000229897
62 *390:37 *404:130 0
63 *390:37 *404:137 0
64 *390:37 *404:148 0
*RES
1 *1990:X *404:4 1.6 
2 *404:4 *1851:RESET_B 3.5025 
3 *404:4 *404:14 4.655 
4 *404:14 *404:18 5.21 
5 *404:18 *1852:RESET_B 0.3975 
6 *404:18 *404:32 6.23 
7 *404:32 *1854:RESET_B 2.7575 
8 *404:32 *404:44 1.635 
9 *404:44 *1855:RESET_B 3.3575 
10 *404:44 *404:56 2.655 
11 *404:56 *1856:RESET_B 2.7575 
12 *404:56 *404:68 1.635 
13 *404:68 *1857:RESET_B 3.7025 
14 *404:68 *404:80 2.145 
15 *404:80 *1858:RESET_B 3.2675 
16 *404:80 *404:92 2.4 
17 *404:92 *1859:RESET_B 2 
18 *404:92 *404:99 1.89 
19 *404:99 *1860:RESET_B 3.2675 
20 *404:99 *404:111 2.4 
21 *404:111 *1861:RESET_B 2 
22 *404:111 *1862:RESET_B 5.1575 
23 *1862:RESET_B *404:130 3.635 
24 *404:130 *1863:RESET_B 2 
25 *404:130 *404:137 2.655 
26 *404:137 *1864:RESET_B 2 
27 *404:137 *404:148 3.21 
28 *404:148 *1865:RESET_B 3.2675 
29 *404:148 *1879:RESET_B 30.2 
30 *404:14 *1853:RESET_B 6.0575 
*END

*D_NET *405 0.00563748
*CONN
*I *1878:RESET_B I *D sky130_fd_sc_hd__dfrtp_4
*I *1877:RESET_B I *D sky130_fd_sc_hd__dfrtp_4
*I *1876:RESET_B I *D sky130_fd_sc_hd__dfrtp_4
*I *1875:RESET_B I *D sky130_fd_sc_hd__dfrtp_4
*I *1874:RESET_B I *D sky130_fd_sc_hd__dfrtp_4
*I *1873:RESET_B I *D sky130_fd_sc_hd__dfrtp_4
*I *1872:RESET_B I *D sky130_fd_sc_hd__dfrtp_4
*I *1871:RESET_B I *D sky130_fd_sc_hd__dfrtp_4
*I *1870:RESET_B I *D sky130_fd_sc_hd__dfrtp_4
*I *1869:RESET_B I *D sky130_fd_sc_hd__dfrtp_4
*I *1868:RESET_B I *D sky130_fd_sc_hd__dfrtp_4
*I *1866:RESET_B I *D sky130_fd_sc_hd__dfrtp_4
*I *1867:RESET_B I *D sky130_fd_sc_hd__dfrtp_4
*I *1991:X O *D sky130_fd_sc_hd__buf_4
*CAP
1 *1878:RESET_B 9.42328e-05
2 *1877:RESET_B 3.32698e-05
3 *1876:RESET_B 0
4 *1875:RESET_B 0.000113849
5 *1874:RESET_B 0
6 *1873:RESET_B 0
7 *1872:RESET_B 0
8 *1871:RESET_B 0
9 *1870:RESET_B 0
10 *1869:RESET_B 0.000128328
11 *1868:RESET_B 0
12 *1866:RESET_B 5.77688e-05
13 *1867:RESET_B 0.000384
14 *1991:X 0.000239931
15 *405:96 0.000203043
16 *405:89 0.000191102
17 *405:77 0.000284287
18 *405:70 0.000152429
19 *405:63 0.000167308
20 *405:56 0.000167308
21 *405:49 0.000161182
22 *405:42 0.000177585
23 *405:30 0.000301673
24 *405:23 0.000168839
25 *405:14 0.000311286
26 *1879:RESET_B *1866:RESET_B 0.000118513
27 *1879:RESET_B *1878:RESET_B 0.000210846
28 *1879:RESET_B *405:23 0.000257005
29 *1879:RESET_B *405:30 0.000116151
30 *1879:RESET_B *405:42 0.000254651
31 *1879:RESET_B *405:49 0.000143266
32 *1879:RESET_B *405:56 0.000235585
33 *1879:RESET_B *405:63 0.000143266
34 *1879:RESET_B *405:70 0.000235585
35 *1879:RESET_B *405:77 0.000118513
36 *1879:RESET_B *405:89 0.000257005
37 *1879:RESET_B *405:96 0.000164679
38 *359:8 *1869:RESET_B 4.49945e-05
39 *390:33 *405:89 0
40 *390:33 *405:96 0
41 *390:35 *405:70 0
42 *390:35 *405:77 0
43 *390:35 *405:89 0
44 *390:37 *1866:RESET_B 0
45 *390:37 *405:23 0
46 *390:37 *405:30 0
47 *390:37 *405:42 0
48 *390:37 *405:49 0
49 *390:37 *405:56 0
50 *390:37 *405:63 0
*RES
1 *1991:X *1867:RESET_B 5.1025 
2 *1867:RESET_B *405:14 3.7025 
3 *405:14 *1866:RESET_B 3.38 
4 *405:14 *405:23 2.91 
5 *405:23 *1868:RESET_B 2 
6 *405:23 *405:30 1.38 
7 *405:30 *1869:RESET_B 3.7025 
8 *405:30 *405:42 2.91 
9 *405:42 *1870:RESET_B 2 
10 *405:42 *405:49 1.635 
11 *405:49 *1871:RESET_B 2 
12 *405:49 *405:56 2.655 
13 *405:56 *1872:RESET_B 2 
14 *405:56 *405:63 1.635 
15 *405:63 *1873:RESET_B 2 
16 *405:63 *405:70 2.655 
17 *405:70 *1874:RESET_B 2 
18 *405:70 *405:77 1.38 
19 *405:77 *1875:RESET_B 3.3575 
20 *405:77 *405:89 2.91 
21 *405:89 *1876:RESET_B 2 
22 *405:89 *405:96 1.89 
23 *405:96 *1877:RESET_B 2.3975 
24 *405:96 *1878:RESET_B 4.4 
*END

*D_NET *406 0.0113623
*CONN
*I *1880:RESET_B I *D sky130_fd_sc_hd__dfrtp_4
*I *1907:RESET_B I *D sky130_fd_sc_hd__dfrtp_4
*I *1906:RESET_B I *D sky130_fd_sc_hd__dfrtp_4
*I *1893:RESET_B I *D sky130_fd_sc_hd__dfrtp_4
*I *1892:RESET_B I *D sky130_fd_sc_hd__dfrtp_4
*I *1891:RESET_B I *D sky130_fd_sc_hd__dfrtp_4
*I *1890:RESET_B I *D sky130_fd_sc_hd__dfrtp_4
*I *1889:RESET_B I *D sky130_fd_sc_hd__dfrtp_4
*I *1888:RESET_B I *D sky130_fd_sc_hd__dfrtp_4
*I *1887:RESET_B I *D sky130_fd_sc_hd__dfrtp_4
*I *1885:RESET_B I *D sky130_fd_sc_hd__dfrtp_4
*I *1886:RESET_B I *D sky130_fd_sc_hd__dfrtp_4
*I *1884:RESET_B I *D sky130_fd_sc_hd__dfrtp_4
*I *1883:RESET_B I *D sky130_fd_sc_hd__dfrtp_4
*I *1882:RESET_B I *D sky130_fd_sc_hd__dfrtp_4
*I *1881:RESET_B I *D sky130_fd_sc_hd__dfrtp_4
*I *1992:X O *D sky130_fd_sc_hd__clkbuf_8
*CAP
1 *1880:RESET_B 0.000151015
2 *1907:RESET_B 0.000230521
3 *1906:RESET_B 0
4 *1893:RESET_B 0.00187899
5 *1892:RESET_B 5.74171e-05
6 *1891:RESET_B 2.04495e-05
7 *1890:RESET_B 5.15338e-05
8 *1889:RESET_B 3.04013e-05
9 *1888:RESET_B 3.53178e-05
10 *1887:RESET_B 2.04495e-05
11 *1885:RESET_B 0.000243726
12 *1886:RESET_B 2.59518e-05
13 *1884:RESET_B 5.15275e-05
14 *1883:RESET_B 0.000140017
15 *1882:RESET_B 0
16 *1881:RESET_B 0.000223796
17 *1992:X 0.000147501
18 *406:182 0.00200255
19 *406:145 0.0003942
20 *406:131 0.000391117
21 *406:119 0.000347202
22 *406:105 0.00029416
23 *406:95 0.000343266
24 *406:77 0.000328398
25 *406:57 0.000269678
26 *406:55 0.000385815
27 *406:39 0.000536797
28 *406:23 0.000438919
29 *406:16 0.000260861
30 *406:6 0.000351956
31 *406:182 *1905:RESET_B 6.18754e-05
32 *406:182 *407:26 0
33 *406:182 *407:38 0
34 *406:182 *407:50 0
35 *406:182 *407:62 0
36 *406:182 *407:69 0
37 *406:182 *407:89 7.50603e-05
38 *406:182 *407:100 0.000236933
39 *406:182 *407:110 7.53115e-05
40 *406:182 *407:128 0.000191478
41 mstream_o[59] *406:6 8.8266e-05
42 mstream_o[60] *406:23 0
43 mstream_o[60] *406:39 0
44 mstream_o[64] *1885:RESET_B 0.000413851
45 mstream_o[68] *406:131 0
46 mstream_o[73] *406:182 8.1992e-05
47 mstream_o[78] *406:182 3.94066e-05
48 mstream_o[83] *406:182 0
49 *1885:CLK *1885:RESET_B 0.000171743
50 *1885:CLK *1886:RESET_B 1.13047e-05
51 *1885:CLK *406:55 0.000152405
52 *237:14 *1880:RESET_B 2.4976e-05
53 *361:18 *1887:RESET_B 4.20673e-05
54 *361:18 *406:95 0
55 *361:18 *406:119 0
56 *362:8 *1891:RESET_B 4.20673e-05
*RES
1 *1992:X *406:6 4.12 
2 *406:6 *1881:RESET_B 0.7425 
3 *1881:RESET_B *406:16 4.7975 
4 *406:16 *1882:RESET_B 2 
5 *406:16 *406:23 1.38 
6 *406:23 *1883:RESET_B 3.7025 
7 *406:23 *406:39 3.21 
8 *406:39 *1884:RESET_B 2.7575 
9 *406:39 *406:55 5.25 
10 *406:55 *406:57 2 
11 *406:57 *1886:RESET_B 0.3975 
12 *406:57 *1885:RESET_B 6.3975 
13 *406:55 *406:77 1.635 
14 *406:77 *1887:RESET_B 2.3975 
15 *406:77 *406:95 3.765 
16 *406:95 *1888:RESET_B 2.3975 
17 *406:95 *406:105 1.635 
18 *406:105 *1889:RESET_B 2.3975 
19 *406:105 *406:119 2.7 
20 *406:119 *1890:RESET_B 2.7575 
21 *406:119 *406:131 2.145 
22 *406:131 *1891:RESET_B 2.3975 
23 *406:131 *406:145 3.555 
24 *406:145 *1892:RESET_B 2.7425 
25 *406:145 *1893:RESET_B 3.635 
26 *1893:RESET_B *406:182 37.3575 
27 *406:182 *1906:RESET_B 2 
28 *406:182 *1907:RESET_B 5.0825 
29 *406:6 *1880:RESET_B 6.3775 
*END

*D_NET *407 0.00481223
*CONN
*I *1905:RESET_B I *D sky130_fd_sc_hd__dfrtp_4
*I *1904:RESET_B I *D sky130_fd_sc_hd__dfrtp_4
*I *1903:RESET_B I *D sky130_fd_sc_hd__dfrtp_4
*I *1902:RESET_B I *D sky130_fd_sc_hd__dfrtp_4
*I *1901:RESET_B I *D sky130_fd_sc_hd__dfrtp_4
*I *1900:RESET_B I *D sky130_fd_sc_hd__dfrtp_4
*I *1899:RESET_B I *D sky130_fd_sc_hd__dfrtp_4
*I *1898:RESET_B I *D sky130_fd_sc_hd__dfrtp_4
*I *1897:RESET_B I *D sky130_fd_sc_hd__dfrtp_4
*I *1896:RESET_B I *D sky130_fd_sc_hd__dfrtp_4
*I *1894:RESET_B I *D sky130_fd_sc_hd__dfrtp_4
*I *1895:RESET_B I *D sky130_fd_sc_hd__dfrtp_4
*I *1993:X O *D sky130_fd_sc_hd__clkbuf_4
*CAP
1 *1905:RESET_B 6.30277e-05
2 *1904:RESET_B 3.19474e-05
3 *1903:RESET_B 3.04013e-05
4 *1902:RESET_B 3.53178e-05
5 *1901:RESET_B 0
6 *1900:RESET_B 9.16057e-05
7 *1899:RESET_B 0
8 *1898:RESET_B 9.16057e-05
9 *1897:RESET_B 0.000108666
10 *1896:RESET_B 5.15338e-05
11 *1894:RESET_B 0.000138128
12 *1895:RESET_B 0.000196647
13 *1993:X 0.000196647
14 *407:128 0.000235929
15 *407:110 0.000245559
16 *407:100 0.000233567
17 *407:89 0.00031565
18 *407:69 0.000403384
19 *407:62 0.000289793
20 *407:50 0.000410727
21 *407:38 0.00037371
22 *407:26 0.000328338
23 *407:10 0.000299389
24 *406:182 *1905:RESET_B 6.18754e-05
25 *406:182 *407:26 0
26 *406:182 *407:38 0
27 *406:182 *407:50 0
28 *406:182 *407:62 0
29 *406:182 *407:69 0
30 *406:182 *407:89 7.50603e-05
31 *406:182 *407:100 0.000236933
32 *406:182 *407:110 7.53115e-05
33 *406:182 *407:128 0.000191478
*RES
1 *1993:X *1895:RESET_B 4.4125 
2 *1895:RESET_B *407:10 2 
3 *407:10 *1894:RESET_B 4.0325 
4 *407:10 *407:26 2.7 
5 *407:26 *1896:RESET_B 2.7575 
6 *407:26 *407:38 1.635 
7 *407:38 *1897:RESET_B 3.3575 
8 *407:38 *407:50 2.145 
9 *407:50 *1898:RESET_B 3.2675 
10 *407:50 *407:62 2.4 
11 *407:62 *1899:RESET_B 2 
12 *407:62 *407:69 1.89 
13 *407:69 *1900:RESET_B 3.2675 
14 *407:69 *407:89 3.765 
15 *407:89 *1901:RESET_B 2 
16 *407:89 *407:100 3.21 
17 *407:100 *1902:RESET_B 2.3975 
18 *407:100 *407:110 1.635 
19 *407:110 *1903:RESET_B 2.3975 
20 *407:110 *407:128 3.765 
21 *407:128 *1904:RESET_B 2.3975 
22 *407:128 *1905:RESET_B 3.38 
*END

*D_NET *408 0.0131497
*CONN
*I *1917:RESET_B I *D sky130_fd_sc_hd__dfrtp_4
*I *1918:RESET_B I *D sky130_fd_sc_hd__dfrtp_4
*I *1937:RESET_B I *D sky130_fd_sc_hd__dfrtp_4
*I *1936:RESET_B I *D sky130_fd_sc_hd__dfrtp_4
*I *1920:RESET_B I *D sky130_fd_sc_hd__dfrtp_4
*I *1921:RESET_B I *D sky130_fd_sc_hd__dfrtp_4
*I *1919:RESET_B I *D sky130_fd_sc_hd__dfrtp_4
*I *1916:RESET_B I *D sky130_fd_sc_hd__dfrtp_4
*I *1915:RESET_B I *D sky130_fd_sc_hd__dfrtp_4
*I *1914:RESET_B I *D sky130_fd_sc_hd__dfrtp_4
*I *1913:RESET_B I *D sky130_fd_sc_hd__dfrtp_4
*I *1912:RESET_B I *D sky130_fd_sc_hd__dfrtp_4
*I *1911:RESET_B I *D sky130_fd_sc_hd__dfrtp_4
*I *1910:RESET_B I *D sky130_fd_sc_hd__dfrtp_4
*I *1908:RESET_B I *D sky130_fd_sc_hd__dfrtp_4
*I *1909:RESET_B I *D sky130_fd_sc_hd__dfrtp_4
*I *1994:X O *D sky130_fd_sc_hd__clkbuf_8
*CAP
1 *1917:RESET_B 0.000416741
2 *1918:RESET_B 3.31185e-05
3 *1937:RESET_B 0.000576126
4 *1936:RESET_B 0.000192959
5 *1920:RESET_B 0.00014088
6 *1921:RESET_B 0.000224549
7 *1919:RESET_B 0.000433787
8 *1916:RESET_B 8.05667e-05
9 *1915:RESET_B 0.000108666
10 *1914:RESET_B 8.05667e-05
11 *1913:RESET_B 0.000140134
12 *1912:RESET_B 5.15338e-05
13 *1911:RESET_B 0
14 *1910:RESET_B 7.44211e-05
15 *1908:RESET_B 0.000240248
16 *1909:RESET_B 3.24744e-05
17 *1994:X 0.00030142
18 *408:182 0.000482219
19 *408:157 0.00184969
20 *408:135 0.0014489
21 *408:117 0.000513867
22 *408:105 0.000559873
23 *408:93 0.000425519
24 *408:81 0.000385352
25 *408:69 0.000387802
26 *408:57 0.000339868
27 *408:46 0.000293851
28 *408:34 0.000508433
29 *408:14 0.00055597
30 *408:6 0.000333895
31 *408:6 *449:DIODE 0.000112349
32 *408:6 *1994:A 0.000197822
33 *408:157 *409:20 0
34 *408:157 *409:32 0
35 *408:157 *409:44 0
36 *408:157 *409:56 0
37 *408:157 *409:68 0
38 *408:157 *409:80 0
39 *408:157 *409:92 0
40 mstream_o[106] *408:157 0.000125543
41 mstream_o[114] *1937:RESET_B 0
42 mstream_o[87] *408:6 2.26717e-05
43 mstream_o[91] *408:81 0
44 mstream_o[93] *408:105 0
45 mstream_o[93] *408:117 0
46 mstream_o[96] *408:117 0
47 *1821:B *408:157 0.000130065
48 *1917:CLK *1919:RESET_B 0
49 *1917:CLK *408:135 0.000200852
50 *1917:CLK *408:157 0.000491319
51 *1937:CLK *408:157 0.00041407
52 *20:8 *1936:RESET_B 4.66108e-05
53 *20:8 *1937:RESET_B 8.49205e-05
54 *356:130 *1921:RESET_B 0.000110092
55 *364:14 *408:157 0
*RES
1 *1994:X *408:6 6.535 
2 *408:6 *1909:RESET_B 0.3975 
3 *408:6 *408:14 2 
4 *408:14 *1908:RESET_B 5.1575 
5 *408:14 *408:34 6.785 
6 *408:34 *1910:RESET_B 1.1025 
7 *408:34 *408:46 3.89 
8 *408:46 *1911:RESET_B 2 
9 *408:46 *408:57 2.955 
10 *408:57 *1912:RESET_B 2.7575 
11 *408:57 *408:69 1.635 
12 *408:69 *1913:RESET_B 3.7025 
13 *408:69 *408:81 2.145 
14 *408:81 *1914:RESET_B 3.2675 
15 *408:81 *408:93 2.145 
16 *408:93 *1915:RESET_B 3.3575 
17 *408:93 *408:105 2.145 
18 *408:105 *1916:RESET_B 3.2675 
19 *408:105 *408:117 5.0775 
20 *408:117 *1919:RESET_B 4.715 
21 *1919:RESET_B *408:135 7.9625 
22 *408:135 *1921:RESET_B 3.7775 
23 *1921:RESET_B *1920:RESET_B 6.3775 
24 *408:135 *408:157 24.8 
25 *408:157 *1936:RESET_B 2.8125 
26 *408:157 *1937:RESET_B 13.03 
27 *408:117 *408:182 2.6825 
28 *408:182 *1918:RESET_B 0.3975 
29 *408:182 *1917:RESET_B 5.5725 
*END

*D_NET *409 0.00664249
*CONN
*I *1923:RESET_B I *D sky130_fd_sc_hd__dfrtp_4
*I *1935:RESET_B I *D sky130_fd_sc_hd__dfrtp_4
*I *1934:RESET_B I *D sky130_fd_sc_hd__dfrtp_4
*I *1933:RESET_B I *D sky130_fd_sc_hd__dfrtp_4
*I *1932:RESET_B I *D sky130_fd_sc_hd__dfrtp_4
*I *1931:RESET_B I *D sky130_fd_sc_hd__dfrtp_4
*I *1930:RESET_B I *D sky130_fd_sc_hd__dfrtp_4
*I *1929:RESET_B I *D sky130_fd_sc_hd__dfrtp_4
*I *1928:RESET_B I *D sky130_fd_sc_hd__dfrtp_4
*I *1927:RESET_B I *D sky130_fd_sc_hd__dfrtp_4
*I *1926:RESET_B I *D sky130_fd_sc_hd__dfrtp_4
*I *1925:RESET_B I *D sky130_fd_sc_hd__dfrtp_4
*I *1924:RESET_B I *D sky130_fd_sc_hd__dfrtp_4
*I *1922:RESET_B I *D sky130_fd_sc_hd__dfrtp_4
*I *1995:X O *D sky130_fd_sc_hd__buf_4
*CAP
1 *1923:RESET_B 0
2 *1935:RESET_B 0.000174968
3 *1934:RESET_B 0
4 *1933:RESET_B 8.05667e-05
5 *1932:RESET_B 0.000108666
6 *1931:RESET_B 9.53651e-05
7 *1930:RESET_B 5.29351e-05
8 *1929:RESET_B 0.000140134
9 *1928:RESET_B 5.15338e-05
10 *1927:RESET_B 0.000140134
11 *1926:RESET_B 2.86256e-05
12 *1925:RESET_B 0.000140134
13 *1924:RESET_B 5.15338e-05
14 *1922:RESET_B 5.31629e-05
15 *1995:X 0.00019683
16 *409:140 0.00036694
17 *409:128 0.000413466
18 *409:116 0.000515333
19 *409:104 0.0004969
20 *409:92 0.000346295
21 *409:80 0.000410474
22 *409:68 0.000329819
23 *409:56 0.000422992
24 *409:44 0.000317572
25 *409:32 0.000424508
26 *409:20 0.0003356
27 *409:16 0.000274008
28 *409:6 0.000352708
29 mstream_o[100] *409:6 0.000159233
30 mstream_o[106] *409:80 0
31 mstream_o[106] *409:92 0
32 mstream_o[113] *1935:RESET_B 0
33 mstream_o[114] *1935:RESET_B 0
34 *1821:A *1931:RESET_B 3.75715e-05
35 *1937:CLK *1930:RESET_B 4.82863e-05
36 *1937:CLK *1935:RESET_B 0
37 *1937:CLK *409:104 0
38 *1937:CLK *409:116 0
39 *1937:CLK *409:128 0
40 *1937:CLK *409:140 0
41 *1956:A *1926:RESET_B 1.83756e-05
42 *371:12 *1926:RESET_B 5.78206e-05
43 *408:157 *409:20 0
44 *408:157 *409:32 0
45 *408:157 *409:44 0
46 *408:157 *409:56 0
47 *408:157 *409:68 0
48 *408:157 *409:80 0
49 *408:157 *409:92 0
*RES
1 *1995:X *409:6 4.81 
2 *409:6 *1922:RESET_B 0.7425 
3 *409:6 *409:16 3.635 
4 *409:16 *409:20 2.85 
5 *409:20 *1924:RESET_B 2.7575 
6 *409:20 *409:32 1.635 
7 *409:32 *1925:RESET_B 3.7025 
8 *409:32 *409:44 2.655 
9 *409:44 *1926:RESET_B 2.7575 
10 *409:44 *409:56 1.635 
11 *409:56 *1927:RESET_B 3.7025 
12 *409:56 *409:68 2.655 
13 *409:68 *1928:RESET_B 2.7575 
14 *409:68 *409:80 1.635 
15 *409:80 *1929:RESET_B 3.7025 
16 *409:80 *409:92 2.4 
17 *409:92 *1930:RESET_B 3.0125 
18 *409:92 *409:104 1.89 
19 *409:104 *1931:RESET_B 3.3575 
20 *409:104 *409:116 4.185 
21 *409:116 *1932:RESET_B 3.3575 
22 *409:116 *409:128 2.145 
23 *409:128 *1933:RESET_B 3.2675 
24 *409:128 *409:140 2.655 
25 *409:140 *1934:RESET_B 2 
26 *409:140 *1935:RESET_B 4.955 
27 *409:16 *1923:RESET_B 2 
*END

*D_NET *410 0.0311825
*CONN
*I *446:DIODE I *D sky130_fd_sc_hd__diode_2
*I *1995:A I *D sky130_fd_sc_hd__buf_4
*I *450:DIODE I *D sky130_fd_sc_hd__diode_2
*I *449:DIODE I *D sky130_fd_sc_hd__diode_2
*I *1994:A I *D sky130_fd_sc_hd__clkbuf_8
*I *448:DIODE I *D sky130_fd_sc_hd__diode_2
*I *1993:A I *D sky130_fd_sc_hd__clkbuf_4
*I *447:DIODE I *D sky130_fd_sc_hd__diode_2
*I *1992:A I *D sky130_fd_sc_hd__clkbuf_8
*I *1991:A I *D sky130_fd_sc_hd__buf_4
*I *445:DIODE I *D sky130_fd_sc_hd__diode_2
*I *1990:A I *D sky130_fd_sc_hd__clkbuf_8
*I *443:DIODE I *D sky130_fd_sc_hd__diode_2
*I *1988:A I *D sky130_fd_sc_hd__buf_4
*I *442:DIODE I *D sky130_fd_sc_hd__diode_2
*I *1987:A I *D sky130_fd_sc_hd__clkbuf_8
*I *1996:X O *D sky130_fd_sc_hd__buf_4
*CAP
1 *446:DIODE 5.25435e-05
2 *1995:A 9.79082e-05
3 *450:DIODE 0
4 *449:DIODE 9.60966e-05
5 *1994:A 3.15649e-05
6 *448:DIODE 4.10103e-05
7 *1993:A 0.000108891
8 *447:DIODE 4.9394e-05
9 *1992:A 0
10 *1991:A 2.92724e-05
11 *445:DIODE 6.43169e-05
12 *1990:A 2.22788e-05
13 *443:DIODE 0
14 *1988:A 0.000131855
15 *442:DIODE 5.16345e-05
16 *1987:A 0
17 *1996:X 0.000242566
18 *410:141 0.00143927
19 *410:123 0.000127662
20 *410:121 0.00283771
21 *410:103 0.000149901
22 *410:101 0.00298125
23 *410:87 8.57922e-05
24 *410:83 0.00332099
25 *410:79 0.00190294
26 *410:70 0.00158181
27 *410:55 0.00160532
28 *410:44 0.00133254
29 *410:28 0.000131855
30 *410:26 0.00309346
31 *410:12 5.16345e-05
32 *410:10 0.00206493
33 mstream_o[0] *410:10 0.000310789
34 mstream_o[100] *1995:A 0.000123955
35 mstream_o[1] *442:DIODE 0.000123592
36 mstream_o[29] *445:DIODE 4.80285e-05
37 mstream_o[29] *1990:A 4.82863e-05
38 mstream_o[59] *447:DIODE 0.00012349
39 mstream_o[59] *410:87 8.65961e-05
40 mstream_o[60] *410:101 0
41 mstream_o[68] *410:101 0
42 mstream_o[73] *410:121 0
43 mstream_o[78] *410:121 0
44 mstream_o[83] *410:121 0
45 mstream_o[87] *449:DIODE 0.000310966
46 mstream_o[87] *1994:A 0.000197822
47 mstream_o[88] *410:141 0
48 mstream_o[91] *410:141 0
49 mstream_o[93] *410:141 0
50 *1917:CLK *410:141 0
51 *2:13 *410:26 0
52 *2:13 *410:44 0
53 *2:13 *410:70 0
54 *2:13 *410:83 0
55 *3:9 *410:10 0
56 *3:9 *410:26 0
57 *356:10 *410:83 0
58 *356:16 *410:70 0.000379943
59 *356:16 *410:83 0
60 *356:18 *410:26 9.40306e-05
61 *356:18 *410:44 0.00135119
62 *356:18 *410:55 3.9442e-05
63 *356:18 *410:70 0.0013405
64 *356:22 *410:26 0.000140194
65 *356:90 *410:101 0.00048579
66 *356:110 *410:101 3.45731e-05
67 *356:126 *410:101 0.000231587
68 *356:126 *410:121 0.000884085
69 *356:126 *410:141 0.000729497
70 *356:158 *410:141 6.15794e-05
71 *361:18 *410:101 0
72 *408:6 *449:DIODE 0.000112349
73 *408:6 *1994:A 0.000197822
*RES
1 *1996:X *410:10 8.355 
2 *410:10 *410:12 2 
3 *410:12 *1987:A 1.6 
4 *410:12 *442:DIODE 2.74 
5 *410:10 *410:26 29.43 
6 *410:26 *410:28 2 
7 *410:28 *1988:A 3.61 
8 *410:28 *443:DIODE 1.6 
9 *410:26 *410:44 27.9 
10 *410:44 *1990:A 4.05 
11 *410:44 *410:55 0.87 
12 *410:55 *445:DIODE 4.395 
13 *410:55 *410:70 35.12 
14 *410:70 *1991:A 2.05 
15 *410:70 *410:79 0.87 
16 *410:79 *410:83 29.9 
17 *410:83 *410:87 2.795 
18 *410:87 *1992:A 1.6 
19 *410:87 *447:DIODE 2.74 
20 *410:83 *410:101 28.155 
21 *410:101 *410:103 2 
22 *410:103 *1993:A 3.1 
23 *410:103 *448:DIODE 2.05 
24 *410:101 *410:121 29.175 
25 *410:121 *410:123 2 
26 *410:123 *1994:A 3.43 
27 *410:123 *449:DIODE 4.465 
28 *410:121 *410:141 28.115 
29 *410:141 *450:DIODE 1.6 
30 *410:141 *1995:A 3.61 
31 *410:79 *446:DIODE 2.395 
*END

*D_NET *411 0.00756569
*CONN
*I *1761:A I *D sky130_fd_sc_hd__nor4b_1
*I *1756:A I *D sky130_fd_sc_hd__nor4b_1
*I *1757:A I *D sky130_fd_sc_hd__nor4b_1
*I *1754:A I *D sky130_fd_sc_hd__nor4b_1
*I *1755:A I *D sky130_fd_sc_hd__nor4b_1
*I *1752:A I *D sky130_fd_sc_hd__nor4b_1
*I *1751:A I *D sky130_fd_sc_hd__nor4b_1
*I *1753:A I *D sky130_fd_sc_hd__nor4b_1
*I *1750:A I *D sky130_fd_sc_hd__nor4b_1
*I *1758:A I *D sky130_fd_sc_hd__nor4b_1
*I *1759:A I *D sky130_fd_sc_hd__nor4b_1
*I *1760:A I *D sky130_fd_sc_hd__nor4b_1
*I *1997:X O *D sky130_fd_sc_hd__clkbuf_4
*CAP
1 *1761:A 0.000139917
2 *1756:A 0
3 *1757:A 9.99966e-05
4 *1754:A 0
5 *1755:A 6.38655e-05
6 *1752:A 0
7 *1751:A 0.000141044
8 *1753:A 0.000190418
9 *1750:A 6.35803e-05
10 *1758:A 9.37654e-05
11 *1759:A 0
12 *1760:A 1.8855e-05
13 *1997:X 7.11214e-05
14 *411:61 0.000339576
15 *411:59 0.000294629
16 *411:57 0.00017355
17 *411:55 0.00024185
18 *411:53 0.000185121
19 *411:51 0.000290374
20 *411:47 0.000264778
21 *411:30 0.000425027
22 *411:21 0.000417307
23 *411:17 0.000530594
24 *411:6 0.000207527
25 *437:DIODE *1750:A 2.47705e-05
26 *437:DIODE *411:61 9.1223e-06
27 *1750:B *1750:A 7.01303e-05
28 *1750:B *411:61 4.72463e-05
29 *1750:C *1750:A 2.05089e-05
30 *1751:B *1751:A 0.000105249
31 *1751:C *1753:A 0.000120655
32 *1753:D_N *1753:A 1.91597e-05
33 *1753:D_N *411:57 2.51754e-05
34 *1753:D_N *411:59 1.25877e-05
35 *1755:C *1755:A 2.20014e-05
36 *1755:D_N *1755:A 0.000156765
37 *1756:D_N *411:47 4.89295e-05
38 *1757:B *1757:A 1.41165e-05
39 *1757:C *1757:A 0.000101098
40 *1757:D_N *1757:A 0.000155601
41 *1758:B *1758:A 1.16854e-05
42 *1758:C *1758:A 2.68464e-05
43 *1758:C *411:30 7.74985e-05
44 *1759:C *411:30 9.99332e-05
45 *1759:D_N *411:30 8.23457e-05
46 *1760:B *1760:A 9.13949e-06
47 *1760:B *411:17 2.84993e-05
48 *1760:C *411:17 4.77719e-05
49 *1760:D_N *411:6 8.64421e-05
50 *1761:B *1761:A 7.06865e-05
51 *1761:C *1761:A 2.4997e-05
52 *1866:D *1751:A 4.77719e-05
53 *1866:D *1753:A 6.367e-06
54 *1873:D *411:30 1.41165e-05
55 *1875:D *411:17 4.66108e-05
56 *360:12 *1755:A 0.000194278
57 *384:34 *411:47 6.60187e-05
58 *384:34 *411:51 0.000156973
59 *384:34 *411:53 0.000220712
60 *384:34 *411:55 0.000134503
61 *384:34 *411:57 0.000154683
62 *385:25 *1761:A 8.18997e-05
63 *385:25 *411:21 0.000492693
64 *385:81 *411:59 0.000115614
65 *385:81 *411:61 6.15924e-05
66 *403:33 *411:47 0
67 *403:33 *411:51 0
68 *403:33 *411:53 0
69 *403:33 *411:55 0
70 *403:33 *411:57 0
71 *403:33 *411:59 0
72 *403:33 *411:61 0
*RES
1 *1997:X *411:6 2.74 
2 *411:6 *1760:A 1.96 
3 *411:6 *411:17 3.83 
4 *411:17 *411:21 7.715 
5 *411:21 *1759:A 1.6 
6 *411:21 *411:30 2.88 
7 *411:30 *1758:A 3.1 
8 *411:30 *411:47 7.195 
9 *411:47 *411:51 3.89 
10 *411:51 *411:53 2.655 
11 *411:53 *411:55 1.635 
12 *411:55 *411:57 2.4 
13 *411:57 *411:59 1.635 
14 *411:59 *411:61 1.38 
15 *411:61 *1750:A 5.085 
16 *411:61 *1753:A 6.045 
17 *411:59 *1751:A 6.15 
18 *411:57 *1752:A 3.6 
19 *411:55 *1755:A 5.79 
20 *411:53 *1754:A 3.6 
21 *411:51 *1757:A 5.79 
22 *411:47 *1756:A 1.6 
23 *411:17 *1761:A 6 
*END

*D_NET *412 0.0163511
*CONN
*I *1790:A I *D sky130_fd_sc_hd__nor4b_1
*I *1789:A I *D sky130_fd_sc_hd__nor4b_1
*I *1788:A I *D sky130_fd_sc_hd__nor4b_1
*I *1777:A I *D sky130_fd_sc_hd__nor4b_1
*I *1775:A I *D sky130_fd_sc_hd__nor4b_1
*I *1774:A I *D sky130_fd_sc_hd__nor4b_1
*I *1772:A I *D sky130_fd_sc_hd__nor4b_1
*I *1773:A I *D sky130_fd_sc_hd__nor4b_1
*I *1770:A I *D sky130_fd_sc_hd__nor4b_1
*I *1771:A I *D sky130_fd_sc_hd__nor4b_1
*I *1769:A I *D sky130_fd_sc_hd__nor4b_1
*I *1768:A I *D sky130_fd_sc_hd__nor4b_1
*I *1767:A I *D sky130_fd_sc_hd__nor4b_1
*I *1765:A I *D sky130_fd_sc_hd__nor4b_1
*I *1766:A I *D sky130_fd_sc_hd__nor4b_1
*I *1791:A I *D sky130_fd_sc_hd__nor4b_1
*I *1998:X O *D sky130_fd_sc_hd__buf_4
*CAP
1 *1790:A 6.37433e-05
2 *1789:A 0.000106801
3 *1788:A 4.49517e-05
4 *1777:A 5.57006e-05
5 *1775:A 0
6 *1774:A 0.000119559
7 *1772:A 0
8 *1773:A 0.000129652
9 *1770:A 0
10 *1771:A 0.000392083
11 *1769:A 0
12 *1768:A 0.000172471
13 *1767:A 0
14 *1765:A 0.000317899
15 *1766:A 4.69452e-05
16 *1791:A 9.30433e-05
17 *1998:X 7.07813e-05
18 *412:67 0.00056638
19 *412:65 0.000308699
20 *412:63 0.000372926
21 *412:61 0.000327589
22 *412:59 0.000925728
23 *412:57 0.00050609
24 *412:55 0.000179626
25 *412:53 0.00033771
26 *412:47 0.000330047
27 *412:39 0.0012962
28 *412:27 0.00114941
29 *412:25 0.000242942
30 *412:23 0.000255147
31 *412:6 0.00029748
32 *1791:A *453:DIODE 0.00013419
33 *412:23 *416:76 0
34 *412:25 *416:76 0
35 *412:27 *416:76 0
36 *412:27 *416:82 0
37 *412:39 *413:21 0.000174125
38 *412:39 *413:23 0.000170497
39 *412:39 *413:25 0.000150453
40 *412:39 *413:27 0.000174519
41 *412:39 *413:29 0.000137578
42 *412:39 *416:82 0
43 *412:39 *416:124 0.0010034
44 *412:47 *416:124 0.000179006
45 *1766:B *1765:A 1.71458e-05
46 *1766:C *1766:A 2.59981e-05
47 *1766:C *412:67 6.99988e-05
48 *1768:C *1768:A 3.30182e-05
49 *1770:D_N *1771:A 1.56428e-05
50 *1772:D_N *1771:A 4.256e-05
51 *1772:D_N *412:57 0.000156155
52 *1772:D_N *412:59 0.000351052
53 *1773:C *1773:A 4.41506e-05
54 *1775:D_N *412:47 0.000197724
55 *1776:D_N *1774:A 1.7635e-05
56 *1777:D_N *1777:A 1.08758e-05
57 *1782:B *412:39 0.000119762
58 *1788:B *1788:A 2.10214e-05
59 *1788:D_N *1788:A 1.08758e-05
60 *1789:B *1789:A 2.75229e-05
61 *1790:B *1790:A 2.10214e-05
62 *1790:D_N *1790:A 1.08758e-05
63 *1791:B *1791:A 4.79375e-05
64 *1880:D *1765:A 0.000276572
65 *1883:D *1768:A 1.83756e-05
66 *1887:CLK *412:59 0
67 *1889:D *1773:A 2.49909e-05
68 *1891:D *412:53 4.66108e-05
69 *1904:CLK *1788:A 0
70 *1905:D *1789:A 5.83121e-06
71 *1906:CLK *412:23 0
72 *1907:D *1791:A 1.16578e-05
73 *1907:D *412:6 0.000161984
74 *1907:D *412:23 0
75 *1952:A *1774:A 5.85515e-05
76 *1953:A *412:55 1.7902e-05
77 *1976:A *1771:A 4.58486e-05
78 *237:16 *412:23 0.000172845
79 *237:16 *412:25 0.000109995
80 *237:16 *412:27 0.000155176
81 *237:16 *412:39 0.00102852
82 *362:8 *412:53 8.23457e-05
83 *367:36 *1774:A 0
84 *386:144 *412:47 4.77719e-05
85 *386:144 *412:53 2.82992e-05
86 *386:148 *1777:A 4.44873e-05
87 *386:170 *1777:A 1.91597e-05
88 *386:170 *412:39 0.000187449
89 *386:170 *412:47 7.37606e-05
90 *390:14 *412:59 0
91 *390:14 *412:61 0
92 *390:149 *1771:A 1.87271e-05
93 *390:149 *412:47 5.88147e-05
94 *396:40 *412:67 0.000100544
95 *396:55 *412:65 9.68865e-05
96 *396:55 *412:67 5.53249e-06
97 *396:68 *412:61 3.4222e-05
98 *396:68 *412:63 8.42239e-05
99 *396:68 *412:65 5.53249e-06
100 *396:83 *412:61 0.000148968
101 *396:123 *412:59 8.82538e-05
102 *396:123 *412:61 2.72165e-05
103 *396:133 *1773:A 5.83121e-06
104 *396:141 *1774:A 4.14369e-05
105 *396:141 *412:53 1.91597e-05
106 *396:141 *412:55 0.000137578
107 *396:158 *412:53 8.34281e-06
108 *400:162 *412:39 0.000777333
*RES
1 *1998:X *412:6 3.085 
2 *412:6 *1791:A 3.805 
3 *412:6 *412:23 4.505 
4 *412:23 *412:25 1.38 
5 *412:25 *412:27 1.89 
6 *412:27 *412:39 32.095 
7 *412:39 *412:47 6.935 
8 *412:47 *412:53 4.19 
9 *412:53 *412:55 2.145 
10 *412:55 *412:57 1.89 
11 *412:57 *412:59 6.225 
12 *412:59 *412:61 4.44 
13 *412:61 *412:63 1.89 
14 *412:63 *412:65 2.145 
15 *412:65 *412:67 3.675 
16 *412:67 *1766:A 4.215 
17 *412:67 *1765:A 7.77 
18 *412:65 *1767:A 3.6 
19 *412:63 *1768:A 6.15 
20 *412:61 *1769:A 3.6 
21 *412:59 *1771:A 6.2049 
22 *412:59 *1770:A 3.6 
23 *412:57 *1773:A 5.43 
24 *412:55 *1772:A 3.6 
25 *412:53 *1774:A 5.745 
26 *412:47 *1775:A 1.6 
27 *412:39 *1777:A 4.77 
28 *412:27 *1788:A 4.41 
29 *412:25 *1789:A 5.085 
30 *412:23 *1790:A 4.77 
*END

*D_NET *413 0.00642676
*CONN
*I *1786:A I *D sky130_fd_sc_hd__nor4b_1
*I *1785:A I *D sky130_fd_sc_hd__nor4b_1
*I *1784:A I *D sky130_fd_sc_hd__nor4b_1
*I *1783:A I *D sky130_fd_sc_hd__nor4b_1
*I *1782:A I *D sky130_fd_sc_hd__nor4b_1
*I *1781:A I *D sky130_fd_sc_hd__nor4b_1
*I *1778:A I *D sky130_fd_sc_hd__nor4b_1
*I *1780:A I *D sky130_fd_sc_hd__nor4b_1
*I *1776:A I *D sky130_fd_sc_hd__nor4b_1
*I *1779:A I *D sky130_fd_sc_hd__nor4b_1
*I *1787:A I *D sky130_fd_sc_hd__nor4b_1
*I *1999:X O *D sky130_fd_sc_hd__buf_2
*CAP
1 *1786:A 0
2 *1785:A 0.000164247
3 *1784:A 0
4 *1783:A 0.000144477
5 *1782:A 0
6 *1781:A 0.000137707
7 *1778:A 0
8 *1780:A 0.000190816
9 *1776:A 9.13954e-05
10 *1779:A 6.14439e-05
11 *1787:A 0.000133664
12 *1999:X 6.86403e-05
13 *413:67 0.000190816
14 *413:41 0.000323319
15 *413:33 0.000296058
16 *413:31 0.000365453
17 *413:29 0.000206822
18 *413:27 0.000355966
19 *413:25 0.00019731
20 *413:23 0.000358023
21 *413:21 0.000179788
22 *413:8 0.000278791
23 *413:8 *416:124 2.68526e-05
24 *413:21 *416:124 0.00017723
25 *413:23 *416:124 1.88656e-05
26 *1776:B *1776:A 0.000262727
27 *1776:C *413:41 1.59888e-05
28 *1778:B *1780:A 0.000146408
29 *1778:D_N *1780:A 0.000158072
30 *1779:C *413:41 1.37328e-05
31 *1779:D_N *1776:A 8.50369e-06
32 *1779:D_N *1779:A 9.13949e-06
33 *1780:C *1779:A 1.47347e-05
34 *1780:C *413:41 4.9253e-06
35 *1782:D_N *413:31 0.000149717
36 *1895:D *413:41 4.94457e-05
37 *1896:D *1780:A 3.96653e-05
38 *1897:D *1781:A 2.75145e-05
39 *1899:D *1783:A 2.49909e-05
40 *1901:D *1785:A 4.66108e-05
41 *1903:D *1787:A 2.49909e-05
42 *1903:D *413:8 8.34281e-06
43 *1983:A *1776:A 4.17521e-05
44 *237:16 *1776:A 0.000139245
45 *237:16 *413:29 1.7902e-05
46 *237:16 *413:31 1.42065e-05
47 *237:16 *413:33 9.27687e-05
48 *237:16 *413:41 8.44359e-05
49 *366:58 *413:23 0
50 *367:77 *413:33 0
51 *367:88 *413:31 0
52 *387:10 *1779:A 3.41304e-05
53 *387:47 *1780:A 0.000174552
54 *397:6 *413:41 4.375e-05
55 *400:162 *1776:A 3.64998e-06
56 *412:39 *413:21 0.000174125
57 *412:39 *413:23 0.000170497
58 *412:39 *413:25 0.000150453
59 *412:39 *413:27 0.000174519
60 *412:39 *413:29 0.000137578
*RES
1 *1999:X *413:8 2.755 
2 *413:8 *1787:A 3.43 
3 *413:8 *413:21 4.505 
4 *413:21 *413:23 2.145 
5 *413:23 *413:25 1.89 
6 *413:25 *413:27 2.145 
7 *413:27 *413:29 2.145 
8 *413:29 *413:31 2.145 
9 *413:31 *413:33 2.145 
10 *413:33 *413:41 5.645 
11 *413:41 *1779:A 2.755 
12 *413:41 *1776:A 8.735 
13 *413:33 *413:67 2 
14 *413:67 *1780:A 6.235 
15 *413:67 *1778:A 1.6 
16 *413:31 *1781:A 5.43 
17 *413:29 *1782:A 3.6 
18 *413:27 *1783:A 5.43 
19 *413:25 *1784:A 3.6 
20 *413:23 *1785:A 5.895 
21 *413:21 *1786:A 3.6 
*END

*D_NET *414 0.0165396
*CONN
*I *1799:A I *D sky130_fd_sc_hd__nor4b_1
*I *1800:A I *D sky130_fd_sc_hd__nor4b_1
*I *1802:A I *D sky130_fd_sc_hd__nor4b_1
*I *1803:A I *D sky130_fd_sc_hd__nor4b_1
*I *1804:A I *D sky130_fd_sc_hd__nor4b_1
*I *1818:A I *D sky130_fd_sc_hd__nor4b_1
*I *1820:A I *D sky130_fd_sc_hd__nor4b_1
*I *1819:A I *D sky130_fd_sc_hd__nor4b_1
*I *1801:A I *D sky130_fd_sc_hd__nor4b_1
*I *1797:A I *D sky130_fd_sc_hd__nor4b_1
*I *1796:A I *D sky130_fd_sc_hd__nor4b_1
*I *1795:A I *D sky130_fd_sc_hd__nor4b_1
*I *1794:A I *D sky130_fd_sc_hd__nor4b_1
*I *1793:A I *D sky130_fd_sc_hd__nor4b_1
*I *1792:A I *D sky130_fd_sc_hd__nor4b_1
*I *1798:A I *D sky130_fd_sc_hd__nor4b_1
*I *2000:X O *D sky130_fd_sc_hd__buf_4
*CAP
1 *1799:A 3.7607e-05
2 *1800:A 6.55045e-05
3 *1802:A 0
4 *1803:A 6.75386e-05
5 *1804:A 0.000226924
6 *1818:A 0
7 *1820:A 0.000142889
8 *1819:A 0.000272656
9 *1801:A 7.66771e-05
10 *1797:A 0
11 *1796:A 0
12 *1795:A 0.000115583
13 *1794:A 0
14 *1793:A 0.000157542
15 *1792:A 0.000110307
16 *1798:A 0
17 *2000:X 0
18 *414:165 0.000533737
19 *414:144 0.00194053
20 *414:126 0.00157892
21 *414:122 0.000402418
22 *414:110 0.000389048
23 *414:93 0.00036911
24 *414:87 0.000351513
25 *414:79 0.000187852
26 *414:27 0.000361183
27 *414:25 0.000198095
28 *414:23 0.000335287
29 *414:21 0.000326353
30 *414:17 0.000349348
31 *414:10 0.000280777
32 *414:4 0.000170374
33 *1799:A *416:10 1.19928e-05
34 *1799:A *416:14 2.49909e-05
35 *414:79 *2000:A 5.83121e-06
36 *414:79 *416:14 6.31732e-05
37 *414:87 *455:DIODE 6.18274e-05
38 *414:87 *416:10 5.04569e-05
39 *414:87 *416:39 4.56967e-05
40 *414:144 *415:43 0
41 *414:144 *415:52 0
42 *414:144 *415:61 0
43 *414:144 *415:107 0
44 *414:144 *415:126 0.000117825
45 *414:165 *415:126 0.000204447
46 *414:165 *415:134 0
47 *432:DIODE *414:144 9.09788e-06
48 *1792:C *1792:A 2.1939e-05
49 *1792:D_N *1792:A 9.50342e-06
50 *1795:C *1795:A 4.66826e-05
51 *1797:D_N *414:21 0.000196308
52 *1798:B *414:17 4.11611e-05
53 *1798:C *414:17 0.000158532
54 *1799:D_N *1799:A 3.6355e-05
55 *1799:D_N *414:79 0.000122801
56 *1800:B *1800:A 4.66108e-05
57 *1800:B *414:93 1.23763e-05
58 *1800:D_N *1800:A 0.000110668
59 *1800:D_N *414:87 0.000121547
60 *1801:B *1801:A 4.66108e-05
61 *1801:D_N *1801:A 0.000120655
62 *1802:B *414:110 1.17976e-05
63 *1802:B *414:122 1.24578e-05
64 *1802:D_N *414:122 1.14169e-05
65 *1803:C *1803:A 1.91597e-05
66 *1803:D_N *1803:A 1.08758e-05
67 *1803:D_N *414:122 9.96764e-05
68 *1804:B *1804:A 4.66742e-05
69 *1805:C *414:144 8.1015e-05
70 *1807:B *414:144 0.000118081
71 *1807:D_N *414:144 0.000104334
72 *1814:D_N *414:144 6.36275e-05
73 *1818:D_N *414:165 0.000235263
74 *1819:B *1819:A 7.11965e-05
75 *1819:C *1819:A 8.48991e-05
76 *1820:B *1820:A 0.000275996
77 *1820:B *414:165 0
78 *1820:D_N *1820:A 0.000160641
79 *1821:A *414:144 0
80 *1909:D *1793:A 4.82863e-05
81 *1911:D *1795:A 2.75145e-05
82 *1914:D *414:17 0.000231596
83 *1920:CLK *1803:A 0
84 *1921:D *1804:A 4.66108e-05
85 *1936:CLK *1819:A 0
86 *1949:A *414:144 0
87 *1984:A *1792:A 0.000112284
88 *137:17 *414:165 0
89 *237:16 *1792:A 0.000118446
90 *237:16 *1820:A 1.56908e-05
91 *237:16 *414:21 8.35313e-05
92 *237:16 *414:23 9.61052e-05
93 *237:16 *414:25 9.766e-05
94 *237:16 *414:27 7.00066e-05
95 *237:16 *414:93 0.000173191
96 *237:16 *414:110 6.36578e-05
97 *237:16 *414:126 0.000214822
98 *237:16 *414:144 0.000482743
99 *363:16 *414:93 0.000198622
100 *363:16 *414:110 0.000105222
101 *363:16 *414:122 7.01303e-05
102 *369:14 *414:21 0
103 *388:8 *1793:A 2.68989e-05
104 *388:81 *414:17 6.33103e-05
105 *388:89 *414:21 8.30853e-06
106 *388:134 *1804:A 0
107 *388:155 *414:126 4.49987e-05
108 *388:168 *1804:A 5.19038e-05
109 *388:168 *414:126 6.55601e-05
110 *388:168 *414:144 5.38986e-06
111 *388:193 *1804:A 3.50152e-06
112 *388:218 *1819:A 8.23457e-05
113 *389:107 *414:144 0
114 *389:120 *414:144 0
115 *390:195 *414:10 0
116 *390:195 *414:87 0
117 *398:10 *1793:A 2.8185e-05
118 *398:101 *1800:A 1.91597e-05
119 *398:168 *1804:A 1.34594e-05
120 *398:168 *414:144 0.000918871
121 *398:191 *414:144 5.4003e-05
122 *398:191 *414:165 0.0005057
123 *399:23 *414:144 7.23533e-05
124 *399:74 *414:144 0
125 *399:92 *414:144 8.96579e-05
126 *400:200 *414:87 7.95445e-05
127 *400:200 *414:93 8.30853e-06
*RES
1 *2000:X *414:4 1.6 
2 *414:4 *414:10 6.145 
3 *414:10 *1798:A 1.6 
4 *414:10 *414:17 3.555 
5 *414:17 *414:21 6.185 
6 *414:21 *414:23 2.145 
7 *414:23 *414:25 2.145 
8 *414:25 *414:27 1.635 
9 *414:27 *1792:A 6.255 
10 *414:27 *1793:A 6.15 
11 *414:25 *1794:A 3.6 
12 *414:23 *1795:A 5.43 
13 *414:21 *1796:A 3.6 
14 *414:17 *1797:A 1.6 
15 *414:4 *414:79 1.14 
16 *414:79 *414:87 7.285 
17 *414:87 *414:93 6.29 
18 *414:93 *1801:A 5.085 
19 *414:93 *414:110 4.7 
20 *414:110 *414:122 7.765 
21 *414:122 *414:126 4.5275 
22 *414:126 *414:144 31.0975 
23 *414:144 *1819:A 8.9025 
24 *414:144 *414:165 11 
25 *414:165 *1820:A 9.32 
26 *414:165 *1818:A 1.6 
27 *414:126 *1804:A 6.9825 
28 *414:122 *1803:A 2.77 
29 *414:110 *1802:A 1.6 
30 *414:87 *1800:A 3.085 
31 *414:79 *1799:A 2.395 
*END

*D_NET *415 0.00896136
*CONN
*I *1815:A I *D sky130_fd_sc_hd__nor4b_1
*I *1816:A I *D sky130_fd_sc_hd__nor4b_1
*I *1817:A I *D sky130_fd_sc_hd__nor4b_1
*I *1814:A I *D sky130_fd_sc_hd__nor4b_1
*I *1811:A I *D sky130_fd_sc_hd__nor4b_1
*I *1809:A I *D sky130_fd_sc_hd__nor4b_1
*I *1813:A I *D sky130_fd_sc_hd__nor4b_1
*I *1812:A I *D sky130_fd_sc_hd__nor4b_1
*I *1810:A I *D sky130_fd_sc_hd__nor4b_1
*I *1808:A I *D sky130_fd_sc_hd__nor4b_1
*I *1807:A I *D sky130_fd_sc_hd__nor4b_1
*I *1806:A I *D sky130_fd_sc_hd__nor4b_1
*I *1805:A I *D sky130_fd_sc_hd__nor4b_1
*I *2001:X O *D sky130_fd_sc_hd__clkbuf_4
*CAP
1 *1815:A 3.5752e-05
2 *1816:A 8.01866e-05
3 *1817:A 6.25432e-05
4 *1814:A 0
5 *1811:A 4.36392e-05
6 *1809:A 0.000132254
7 *1813:A 0.000187713
8 *1812:A 0
9 *1810:A 0
10 *1808:A 0
11 *1807:A 5.12409e-05
12 *1806:A 0
13 *1805:A 0.000256086
14 *2001:X 3.69588e-05
15 *415:134 0.000287351
16 *415:126 0.00058658
17 *415:107 0.000509817
18 *415:85 0.000321347
19 *415:72 0.000333166
20 *415:70 0.00014399
21 *415:61 0.000192948
22 *415:52 0.00033275
23 *415:43 0.000252197
24 *415:12 0.000354867
25 *415:10 0.000177929
26 *415:8 0.000136881
27 *1807:A *456:DIODE 0.000192125
28 *415:8 *456:DIODE 4.66108e-05
29 *1805:B *1805:A 0.00014862
30 *1805:B *415:12 5.18694e-05
31 *1805:D_N *1805:A 0.000187666
32 *1807:B *1807:A 2.05056e-05
33 *1807:D_N *1807:A 0.000155497
34 *1811:B *415:85 0.000153816
35 *1811:D_N *1809:A 0.000277996
36 *1811:D_N *1811:A 4.31106e-05
37 *1813:B *1813:A 9.00196e-05
38 *1813:B *415:85 1.91597e-05
39 *1814:D_N *415:126 0.000122801
40 *1815:D_N *1815:A 3.75126e-05
41 *1815:D_N *415:126 0.000160314
42 *1816:C *1816:A 0.000125419
43 *1817:B *1817:A 1.52352e-05
44 *1817:C *1816:A 3.57349e-05
45 *1817:C *1817:A 4.77719e-05
46 *1821:A *415:126 1.14169e-05
47 *1930:D *415:107 4.93707e-05
48 *1934:D *1816:A 0.000232755
49 *137:17 *415:126 0
50 *137:17 *415:134 3.27592e-05
51 *237:16 *1809:A 5.53549e-06
52 *237:16 *1811:A 1.34361e-05
53 *388:193 *415:126 2.20014e-05
54 *388:218 *415:126 0
55 *389:28 *415:12 8.20052e-05
56 *389:41 *415:10 4.86642e-05
57 *389:41 *415:12 4.08545e-05
58 *389:41 *415:43 0.000135767
59 *389:41 *415:52 8.7152e-06
60 *389:50 *415:52 0.000342362
61 *389:50 *415:61 9.09788e-06
62 *389:59 *415:61 0.000168065
63 *389:74 *415:61 0.000169562
64 *389:74 *415:70 9.09788e-06
65 *389:83 *415:70 0.000105222
66 *389:83 *415:107 7.19286e-05
67 *389:107 *415:107 0.000146872
68 *399:74 *415:61 0.000112783
69 *399:82 *1809:A 7.90859e-05
70 *399:92 *415:61 2.61115e-05
71 *399:92 *415:70 5.62119e-05
72 *399:92 *415:107 2.92841e-05
73 *399:141 *1815:A 4.77719e-05
74 *399:141 *415:134 0.000134373
75 *414:144 *415:43 0
76 *414:144 *415:52 0
77 *414:144 *415:61 0
78 *414:144 *415:107 0
79 *414:144 *415:126 0.000117825
80 *414:165 *415:126 0.000204447
81 *414:165 *415:134 0
*RES
1 *2001:X *415:8 4.05 
2 *415:8 *415:10 0.615 
3 *415:10 *415:12 2.145 
4 *415:12 *1805:A 7.68 
5 *415:12 *1806:A 3.6 
6 *415:10 *1807:A 5.43 
7 *415:8 *415:43 1.635 
8 *415:43 *1808:A 3.6 
9 *415:43 *415:52 4.185 
10 *415:52 *1810:A 3.6 
11 *415:52 *415:61 4.185 
12 *415:61 *1812:A 3.6 
13 *415:61 *415:70 1.38 
14 *415:70 *415:72 2 
15 *415:72 *1813:A 4.045 
16 *415:72 *415:85 3.83 
17 *415:85 *1809:A 7.02 
18 *415:85 *1811:A 4.47 
19 *415:70 *415:107 4.655 
20 *415:107 *1814:A 1.6 
21 *415:107 *415:126 12.31 
22 *415:126 *415:134 6.76 
23 *415:134 *1817:A 2.74 
24 *415:134 *1816:A 4.12 
25 *415:126 *1815:A 2.395 
*END

*D_NET *416 0.0383449
*CONN
*I *453:DIODE I *D sky130_fd_sc_hd__diode_2
*I *1998:A I *D sky130_fd_sc_hd__buf_4
*I *454:DIODE I *D sky130_fd_sc_hd__diode_2
*I *1999:A I *D sky130_fd_sc_hd__buf_2
*I *1989:A I *D sky130_fd_sc_hd__buf_4
*I *451:DIODE I *D sky130_fd_sc_hd__diode_2
*I *452:DIODE I *D sky130_fd_sc_hd__diode_2
*I *1967:A I *D sky130_fd_sc_hd__buf_4
*I *434:DIODE I *D sky130_fd_sc_hd__diode_2
*I *1978:A I *D sky130_fd_sc_hd__clkbuf_4
*I *444:DIODE I *D sky130_fd_sc_hd__diode_2
*I *1997:A I *D sky130_fd_sc_hd__clkbuf_4
*I *455:DIODE I *D sky130_fd_sc_hd__diode_2
*I *456:DIODE I *D sky130_fd_sc_hd__diode_2
*I *2001:A I *D sky130_fd_sc_hd__clkbuf_4
*I *2000:A I *D sky130_fd_sc_hd__buf_4
*I *2002:X O *D sky130_fd_sc_hd__clkbuf_4
*CAP
1 *453:DIODE 0.000320456
2 *1998:A 0
3 *454:DIODE 0
4 *1999:A 0
5 *1989:A 0.000220629
6 *451:DIODE 0
7 *452:DIODE 0.00011609
8 *1967:A 0
9 *434:DIODE 0
10 *1978:A 5.8836e-05
11 *444:DIODE 6.84585e-05
12 *1997:A 6.24879e-05
13 *455:DIODE 2.45733e-05
14 *456:DIODE 0.00025639
15 *2001:A 0
16 *2000:A 0.000135755
17 *2002:X 0
18 *416:240 0.000326091
19 *416:173 0.00044876
20 *416:165 0.000363796
21 *416:163 0.00495148
22 *416:132 0.00507442
23 *416:130 0.000318576
24 *416:128 0.000247119
25 *416:126 0.00136305
26 *416:124 0.00339273
27 *416:82 0.00260373
28 *416:76 0.000451775
29 *416:74 0.000705626
30 *416:39 0.00138538
31 *416:14 0.0013853
32 *416:10 0.000516194
33 *416:4 0.000825284
34 *1735:D_N *444:DIODE 9.93686e-06
35 *1735:D_N *1978:A 3.13354e-05
36 *1735:D_N *416:173 3.34702e-05
37 *1736:C *416:165 0.000234973
38 *1736:D_N *416:165 8.61608e-05
39 *1737:B *416:163 0.000221673
40 *1737:C *416:163 4.9968e-05
41 *1739:D_N *416:163 5.71181e-06
42 *1748:D_N *416:163 0.000114662
43 *1759:D_N *416:163 0
44 *1760:D_N *1997:A 4.66108e-05
45 *1761:D_N *452:DIODE 6.34721e-05
46 *1763:D_N *1989:A 3.50562e-05
47 *1774:D_N *416:124 0
48 *1778:D_N *416:124 0
49 *1791:A *453:DIODE 0.00013419
50 *1791:D_N *453:DIODE 5.06989e-05
51 *1799:A *416:10 1.19928e-05
52 *1799:A *416:14 2.49909e-05
53 *1799:B *416:10 6.1357e-05
54 *1799:D_N *2000:A 5.37723e-05
55 *1799:D_N *416:10 5.83121e-06
56 *1804:D_N *416:39 5.00615e-05
57 *1807:A *456:DIODE 0.000192125
58 *1807:B *456:DIODE 1.41165e-05
59 *1807:C *456:DIODE 1.08153e-05
60 *1807:D_N *456:DIODE 3.63206e-05
61 *1807:D_N *416:39 0.000177392
62 *1903:D *416:82 7.55432e-05
63 *1903:D *416:124 0.000122801
64 *1904:CLK *416:82 0.000229904
65 *1905:CLK *416:76 2.97561e-05
66 *1905:CLK *416:82 4.76659e-05
67 *1906:CLK *416:74 0.000126292
68 *1906:CLK *416:76 0.000146379
69 *1906:CLK *416:240 1.00889e-05
70 *1907:CLK *416:74 0.000471287
71 *1907:D *453:DIODE 0.000158656
72 *1915:CLK *416:74 2.49909e-05
73 *1915:D *416:10 4.4587e-05
74 *1915:D *416:74 1.41095e-05
75 *1966:A *416:126 0
76 *2002:A *416:10 0.000121541
77 *237:14 *416:126 0
78 *237:16 *416:124 0
79 *363:16 *416:39 0
80 *366:58 *416:124 0
81 *368:10 *416:74 0.000172852
82 *368:12 *416:74 0.000132089
83 *368:14 *416:74 0.000575814
84 *369:14 *416:74 0.000535818
85 *369:16 *416:74 0.000141606
86 *369:18 *416:74 0.000356583
87 *369:20 *416:74 0.00022921
88 *370:14 *456:DIODE 2.11702e-05
89 *370:16 *456:DIODE 1.0555e-05
90 *381:6 *416:165 8.77516e-05
91 *384:34 *1997:A 0
92 *384:34 *416:130 0
93 *384:34 *416:132 0
94 *384:66 *416:163 0
95 *385:25 *416:163 0.000118407
96 *386:25 *416:126 0
97 *386:29 *416:126 0
98 *386:33 *416:126 0
99 *386:43 *416:126 0.000319929
100 *386:107 *416:124 0
101 *386:107 *416:126 0
102 *386:144 *416:124 0
103 *386:170 *416:124 0
104 *387:38 *416:124 0.000113572
105 *390:149 *416:124 0.000359965
106 *390:149 *416:126 0.000311024
107 *390:195 *416:39 0.000433325
108 *391:10 *416:173 0.000134379
109 *392:14 *416:173 0.000165136
110 *394:29 *416:163 0.000107634
111 *394:157 *416:130 2.23407e-05
112 *394:163 *416:128 4.61744e-05
113 *394:163 *416:130 2.24423e-05
114 *396:133 *416:124 0.000133074
115 *398:168 *416:39 0.000251694
116 *399:36 *456:DIODE 3.17252e-05
117 *400:26 *416:163 0
118 *400:82 *416:163 0.000151901
119 *400:116 *416:163 0.00176428
120 *400:162 *416:124 0.000205788
121 *400:200 *455:DIODE 7.01359e-05
122 *400:200 *416:10 0.000112263
123 *400:200 *416:39 0
124 *403:6 *1989:A 0.000162684
125 *403:21 *416:128 0
126 *403:33 *1997:A 6.31816e-05
127 *403:33 *416:130 8.59365e-05
128 *403:33 *416:132 0.000212187
129 *412:23 *416:76 0
130 *412:25 *416:76 0
131 *412:27 *416:76 0
132 *412:27 *416:82 0
133 *412:39 *416:82 0
134 *412:39 *416:124 0.0010034
135 *412:47 *416:124 0.000179006
136 *413:8 *416:124 2.68526e-05
137 *413:21 *416:124 0.00017723
138 *413:23 *416:124 1.88656e-05
139 *414:79 *2000:A 5.83121e-06
140 *414:79 *416:14 6.31732e-05
141 *414:87 *455:DIODE 6.18274e-05
142 *414:87 *416:10 5.04569e-05
143 *414:87 *416:39 4.56967e-05
144 *415:8 *456:DIODE 4.66108e-05
*RES
1 *2002:X *416:4 1.6 
2 *416:4 *416:10 7.28 
3 *416:10 *416:14 3.485 
4 *416:14 *2000:A 3.61 
5 *416:14 *416:39 25.84 
6 *416:39 *2001:A 1.6 
7 *416:39 *456:DIODE 10.28 
8 *416:10 *455:DIODE 4.47 
9 *416:4 *416:74 19.2875 
10 *416:74 *416:76 4.5675 
11 *416:76 *416:82 6.47 
12 *416:82 *416:124 39.8273 
13 *416:124 *416:126 17.5725 
14 *416:126 *416:128 2.145 
15 *416:128 *416:130 2.145 
16 *416:130 *416:132 2.5275 
17 *416:132 *1997:A 4.7925 
18 *416:132 *416:163 17.3834 
19 *416:163 *416:165 2.175 
20 *416:165 *416:173 8.845 
21 *416:173 *444:DIODE 2.395 
22 *416:173 *1978:A 2.725 
23 *416:165 *434:DIODE 1.6 
24 *416:163 *1967:A 1.6 
25 *416:130 *452:DIODE 5.085 
26 *416:128 *451:DIODE 3.6 
27 *416:126 *1989:A 6.735 
28 *416:82 *1999:A 1.6 
29 *416:76 *454:DIODE 3.6 
30 *416:74 *416:240 2.2325 
31 *416:240 *1998:A 1.6 
32 *416:240 *453:DIODE 7.15 
*END
